273 457
273 21858
273 24959
273 29546
273 52116
361 6055
361 6517
361 6543
361 16278
361 40435
361 47542
361 48098
361 49074
554 3737
554 5187
554 18533
554 20394
554 21669
554 25569
554 27312
554 30863
554 32368
554 36860
554 44934
554 45385
554 49600
554 56559
554 57738
554 60926
554 66135
554 66820
554 67012
1035 12334
1035 19684
1035 20670
1035 35481
1035 57605
1035 59730
1616 4389
1616 4983
1616 6397
1616 6977
1616 12459
1616 22502
1616 28651
1616 28971
1616 33431
1616 34735
1616 36103
1616 44805
1616 45526
1616 53444
1616 56583
1616 57273
1616 66171
2317 13648
2317 25569
2317 48022
2794 15083
2794 47901
2794 51030
3306 28083
3306 29595
3306 33617
3306 33650
3306 33715
3306 39659
3306 50568
3306 66932
3306 66995
3465 30160
3465 33200
3465 63966
3737 13648
3737 16610
3737 24394
3737 30160
3737 56559
3737 59077
3922 13153
3922 56185
3922 57209
4389 4983
4389 6977
4389 22502
4389 28651
4389 28971
4389 45526
4389 57273
4503 4521
4503 40894
4503 67012
4521 40894
4521 67012
4621 5138
4621 7522
4621 8465
4621 11403
4621 18165
4621 21858
4621 27587
4621 35280
4621 36010
4621 40262
4621 49541
4621 52116
4621 66017
3922 4892
4892 13153
4892 56185
4892 57209
4983 22502
4983 28651
4983 45526
4983 57273
5138 6142
5138 20394
5138 24959
5138 27587
5138 45079
5138 45844
5138 48973
5138 58588
5138 61742
3465 5187
3737 5187
5187 13648
5187 27312
5187 31612
5187 32368
5187 40517
5187 50568
5187 54424
5187 56559
5187 63966
5187 66135
361 5339
5339 6055
5339 6517
5339 6543
5339 11078
5339 15618
5339 16278
5339 23825
5339 26398
5339 40435
5339 42819
5339 46344
5339 47542
5339 48098
5339 49074
5339 49958
5660 7136
5660 8661
5660 8672
5660 8979
5660 9082
5660 15792
5660 16496
5660 18168
5660 23701
5660 31670
5660 32661
5660 34142
5660 38112
5660 38826
5660 38892
5660 40675
5660 49304
5660 51382
5660 54845
5660 56916
5660 65199
5999 12193
6055 40435
6055 47542
6055 48098
6055 49074
3465 6142
6142 24295
6142 40894
6142 44934
6142 45385
6142 46001
6142 55259
6142 63966
6142 67012
361 6254
5339 6254
6055 6254
6254 6517
6254 6543
6254 10431
6254 11078
6254 15618
6254 16278
6254 23825
6254 24711
6254 26398
6254 38055
6254 39085
6254 40435
6254 42819
6254 46344
6254 47542
6254 48098
6254 49074
6254 49958
6254 51840
6254 53450
6254 55443
4389 6397
4983 6397
6397 6977
6397 22502
6397 28651
6397 28971
6397 36103
6397 44805
6397 45526
6397 56583
6397 57273
6055 6517
6517 6543
6517 16278
6517 40435
6517 47542
6517 48098
6517 49074
6055 6543
6543 16278
6543 40435
6543 47542
6543 48098
6543 49074
6975 20394
6975 21858
6975 26021
6975 45385
6975 57738
6975 60926
4983 6977
6977 22502
6977 28651
6977 45526
6977 57273
7136 8672
7136 38892
7522 28083
7522 33200
7522 35280
7522 49600
5660 7704
7136 7704
7704 8661
7704 8672
7704 8979
7704 9082
7704 15792
7704 16496
7704 18168
7704 23701
7704 31670
7704 32661
7704 34142
7704 38112
7704 38826
7704 38892
7704 40675
7704 49304
7704 51382
7704 52762
7704 54845
7704 56916
7704 65199
8307 10598
8307 16685
8307 16687
8307 22726
8307 23687
8307 29335
8307 31503
8307 32719
8307 40370
8307 57830
8307 61292
8307 63707
8307 65168
8307 67872
8307 68368
8465 27587
8465 35750
8465 40262
8465 50568
8465 52116
8465 66017
7136 8661
8661 8672
8661 38892
8672 38892
7136 8979
8661 8979
8672 8979
8979 9082
8979 18168
8979 23701
8979 31670
8979 32661
8979 34142
8979 38112
8979 38826
8979 38892
8979 40675
8979 49304
8979 51382
8979 65199
7136 9082
8661 9082
8672 9082
9082 31670
9082 32661
9082 38826
9082 38892
5999 10087
10087 12193
3922 10408
4892 10408
10408 13153
10408 56185
10408 57052
10408 57209
10408 65303
361 10431
5339 10431
6055 10431
6517 10431
6543 10431
10431 11078
10431 15618
10431 16278
10431 23825
10431 26398
10431 40435
10431 42819
10431 46344
10431 47542
10431 48098
10431 49074
10431 49958
10431 53450
10598 32719
10598 40370
10598 57830
10598 61292
361 11078
6055 11078
6517 11078
6543 11078
11078 16278
11078 40435
11078 47542
11078 48098
11078 49074
5999 11084
10087 11084
11084 12193
8465 11264
11264 30291
11264 35750
11264 36010
11264 39723
11264 40262
11264 50568
11264 60926
11403 18165
11403 19615
11403 21669
11403 24959
11403 33029
11403 35606
11403 35630
11403 45319
11403 48570
11403 50568
11403 52116
11403 53196
11403 58588
11403 61777
11403 62227
12334 19684
12334 20670
12334 35481
12334 57605
12334 59730
4389 12459
4983 12459
6397 12459
6977 12459
12459 22502
12459 28651
12459 28971
12459 36103
12459 44805
12459 45526
12459 53444
12459 56583
12459 57273
6142 12981
12981 24295
12981 40894
12981 44934
12981 55259
12981 63966
13153 56185
13153 57209
13426 13728
13426 24408
13426 25717
13426 33545
13426 34931
13426 38823
13426 60869
13426 68024
7522 13648
13648 20394
13648 24959
13648 33200
13648 40894
13648 44934
13728 38823
13728 60869
13728 68024
11403 13937
13937 16164
13937 19615
13937 24702
13937 29181
13937 35606
13937 35630
13937 39723
13937 48570
13937 49541
13937 52116
13937 53196
13937 58588
13937 61742
13937 61777
1616 14906
4389 14906
4983 14906
6397 14906
6977 14906
12459 14906
14906 22502
14906 28651
14906 28971
14906 33431
14906 36103
14906 44805
14906 45526
14906 53444
14906 56583
14906 57273
14906 66171
8307 14945
10598 14945
14945 16685
14945 16687
14945 22726
14945 23687
14945 29335
14945 31503
14945 32719
14945 40370
14945 57830
14945 61292
14945 63707
14945 65168
14945 67872
14945 68368
15083 47901
15083 51030
361 15618
6055 15618
6517 15618
6543 15618
11078 15618
15618 16278
15618 23825
15618 26398
15618 40435
15618 42819
15618 46344
15618 47542
15618 48098
15618 49074
15618 49958
7136 15792
8661 15792
8672 15792
8979 15792
9082 15792
15792 16496
15792 18168
15792 23701
15792 31670
15792 32661
15792 34142
15792 38112
15792 38826
15792 38892
15792 40675
15792 49304
15792 51382
15792 65199
16164 22838
16164 27587
16164 29181
16164 35280
16164 39723
16164 48973
16164 49541
6055 16278
16278 40435
16278 47542
16278 48098
16278 49074
7136 16496
8661 16496
8672 16496
8979 16496
9082 16496
16496 18168
16496 23701
16496 31670
16496 32661
16496 34142
16496 38112
16496 38826
16496 38892
16496 40675
16496 49304
16496 51382
16496 65199
16610 20394
16610 30160
16610 49600
10598 16685
16685 16687
16685 32719
16685 40370
16685 57830
16685 61292
10598 16687
16687 32719
16687 40370
16687 57830
16687 61292
7522 18165
8465 18165
18165 35750
18165 40262
18165 52116
7136 18168
8661 18168
8672 18168
9082 18168
18168 31670
18168 32661
18168 34142
18168 38826
18168 38892
361 18433
5339 18433
6055 18433
6254 18433
6517 18433
6543 18433
10431 18433
11078 18433
15618 18433
16278 18433
18433 19470
18433 23825
18433 24711
18433 25092
18433 26398
18433 32833
18433 37963
18433 38055
18433 38500
18433 39085
18433 40435
18433 42819
18433 46344
18433 47542
18433 48098
18433 49074
18433 49958
18433 51294
18433 51840
18433 53450
18433 55443
18533 40894
18533 55259
18533 57738
18533 66820
273 18956
18956 19615
18956 19660
18956 20394
18956 22838
18956 24394
18956 24959
18956 29373
18956 29546
18956 33715
18956 34926
18956 35424
18956 41687
18956 45844
18956 46139
18956 61475
18956 61742
18956 66995
361 19470
5339 19470
6055 19470
6254 19470
6517 19470
6543 19470
10431 19470
11078 19470
15618 19470
16278 19470
19470 23825
19470 24711
19470 26398
19470 32833
19470 37963
19470 38055
19470 38500
19470 39085
19470 40435
19470 42819
19470 46344
19470 47542
19470 48098
19470 49074
19470 49958
19470 51294
19470 51840
19470 53450
19470 55443
16164 19615
19615 24295
19615 24394
19615 24959
19615 27587
19615 34735
19615 35606
19615 45844
19615 48570
19615 48973
19615 58588
19615 61742
19615 66995
2317 19660
3465 19660
8188 19660
19660 22838
19660 24394
19660 33200
19660 63966
19684 57605
19684 59730
19684 60926
14762 19714
19714 36772
19714 47943
19714 51985
19714 66474
457 20519
3465 20519
18533 20519
20519 33029
20519 36860
20519 59077
20519 63113
19684 20670
20670 57605
20670 59730
3737 20994
5138 20994
13648 20994
19615 20994
20519 20994
20994 22838
20994 24959
20994 32368
20994 40517
20994 45844
20994 48192
20994 55259
20994 61742
6975 21669
8188 21669
20394 21669
21669 21858
21669 24394
21669 28083
21669 30160
21669 35606
21669 44934
21669 45385
21669 48570
21669 49939
21669 62227
20394 21858
21858 30160
22502 28651
554 22552
7522 22552
18533 22552
22552 24295
22552 25569
22552 28083
22552 30160
22552 30863
22552 36010
22552 45385
22552 48022
22552 49600
22552 57738
22552 66135
10598 22726
16685 22726
16687 22726
22726 31503
22726 32719
22726 40370
22726 57830
22726 61292
22726 63707
22726 67872
22726 68368
8188 22838
22838 31612
8307 23072
10598 23072
14945 23072
16685 23072
16687 23072
22726 23072
23072 23687
23072 29335
23072 31503
23072 32719
23072 38965
23072 40370
23072 57830
23072 61292
23072 63707
23072 65091
23072 65168
23072 67872
23072 68368
10598 23687
16685 23687
16687 23687
22726 23687
23687 29335
23687 31503
23687 32719
23687 40370
23687 57830
23687 61292
23687 63707
23687 65168
23687 67872
23687 68368
7136 23701
8661 23701
8672 23701
9082 23701
18168 23701
23701 31670
23701 32661
23701 34142
23701 38112
23701 38826
23701 38892
23701 40675
23701 49304
23701 51382
23701 65199
361 23825
6055 23825
6517 23825
6543 23825
11078 23825
16278 23825
23825 26398
23825 40435
23825 42819
23825 47542
23825 48098
23825 49074
23825 49958
273 24295
457 24295
24295 28083
24295 40894
24295 44934
24295 45385
24295 55259
24295 66995
24295 67012
13648 24394
24394 26021
24394 44934
13728 24408
24408 38823
24408 60869
24408 68024
11403 24702
24702 35606
24702 35630
24702 48570
24702 53196
24702 61777
361 24711
5339 24711
6055 24711
6517 24711
6543 24711
10431 24711
11078 24711
15618 24711
16278 24711
23825 24711
24711 26398
24711 38055
24711 39085
24711 40435
24711 42819
24711 46344
24711 47542
24711 48098
24711 49074
24711 49958
24711 53450
24711 55443
24959 29181
25091 29291
25091 29509
25091 29635
25091 33512
25091 33617
25091 33650
25091 33755
25091 46139
25091 56008
25091 66932
361 25092
5339 25092
6055 25092
6254 25092
6517 25092
6543 25092
10431 25092
11078 25092
15618 25092
16278 25092
19470 25092
23825 25092
24711 25092
25092 26398
25092 32833
25092 37963
25092 38055
25092 38500
25092 39085
25092 40435
25092 42819
25092 46344
25092 47542
25092 48098
25092 49074
25092 49958
25092 51294
25092 51840
25092 53450
25092 55443
13728 25717
24408 25717
25717 33545
25717 38823
25717 60869
25717 68024
26021 30160
26021 60926
361 26398
6055 26398
6517 26398
6543 26398
11078 26398
16278 26398
26398 40435
26398 42819
26398 47542
26398 48098
26398 49074
26398 49958
19660 27312
22838 27312
25569 27312
27312 33200
27312 34071
27312 40894
27312 45385
27312 56559
27312 63966
27312 67012
27587 66017
27312 27652
27652 29181
27652 33200
27652 34735
27652 41687
27652 55835
27652 56559
27652 59471
6975 27926
26021 27926
27926 35280
27926 35750
27926 57738
27926 60926
27926 66017
457 28083
13648 28320
25569 28320
27312 28320
28320 33200
28320 40894
28320 48022
4983 28971
6977 28971
22502 28971
28651 28971
28971 45526
28971 57273
14762 29220
19714 29220
29220 31860
29220 36772
29220 47943
29220 51985
29220 64577
29220 66474
29291 29373
29291 29595
29291 33512
29291 33755
29291 46064
29291 50568
29291 56008
29291 63966
29291 66932
10598 29335
16685 29335
16687 29335
22726 29335
29335 31503
29335 32719
29335 40370
29335 57830
29335 61292
29335 63707
29335 67872
29335 68368
29373 33512
29373 33715
29373 39659
29373 50568
29373 66932
29373 66995
29437 29509
29437 29546
29437 29595
29437 33617
29437 33755
29437 46001
29437 46064
29437 66932
29509 29546
29509 33617
29509 33755
29509 46001
29509 46064
29546 50568
29546 60926
29546 66932
29546 66995
29595 29635
29595 33715
29291 29715
29373 29715
29437 29715
29546 29715
29595 29715
29635 29715
29715 33617
29715 33715
29715 33755
29715 46237
29715 50568
29715 56008
8188 30160
457 30291
27312 30291
28320 30291
30291 34071
30291 35750
30291 36010
30291 45385
30291 60926
30291 63113
30291 66820
19615 30863
27587 30863
28083 30863
30863 49541
30863 49600
10598 31503
16685 31503
16687 31503
31503 32719
31503 40370
31503 57830
31503 61292
31503 67872
31503 68368
3465 31612
31612 33200
31612 49600
7136 31670
8661 31670
8672 31670
31670 38892
14762 31860
19714 31860
31860 36772
31860 47943
31860 51985
31860 66474
22838 32368
32368 33029
7136 32661
8661 32661
8672 32661
31670 32661
32661 38826
32661 38892
32719 57830
361 32833
5339 32833
6055 32833
6254 32833
6517 32833
6543 32833
10431 32833
11078 32833
15618 32833
16278 32833
23825 32833
24711 32833
26398 32833
32833 37963
32833 38055
32833 38500
32833 39085
32833 40435
32833 42819
32833 46344
32833 47542
32833 48098
32833 49074
32833 49958
32833 51294
32833 51840
32833 53450
32833 55443
3465 33029
22838 33029
31612 33029
4389 33431
4983 33431
6397 33431
6977 33431
12459 33431
22502 33431
28651 33431
28971 33431
33431 36103
33431 44805
33431 45526
33431 53444
33431 56583
33431 57273
3306 33454
29373 33454
29437 33454
29546 33454
29595 33454
33454 33512
33454 33617
33454 33715
33454 39659
33454 46001
3306 33512
29437 33512
29509 33512
29546 33512
29595 33512
29635 33512
33512 33617
33512 33650
33512 33715
33512 33755
33512 39659
33512 46001
33512 46064
33512 66995
13728 33545
24408 33545
33545 38823
33545 60869
33545 68024
29546 33617
29595 33617
33617 33650
33617 46064
33617 66932
29635 33650
33650 33755
33650 46001
33650 66932
33715 66995
33755 46064
2317 33847
3465 33847
5187 33847
13648 33847
25569 33847
32368 33847
33029 33847
33847 48192
33847 54424
33847 66135
16164 34071
34071 35280
34071 39723
34071 60926
7136 34142
8661 34142
8672 34142
9082 34142
31670 34142
32661 34142
34142 38826
34142 38892
5999 34477
10087 34477
11084 34477
12193 34477
34477 38615
34477 66289
27587 34735
5999 34871
10087 34871
11084 34871
12193 34871
34477 34871
34871 38615
34871 66289
34871 68179
11403 34926
13937 34926
19615 34926
22838 34926
24702 34926
34926 35606
34926 35630
34926 39723
34926 48570
34926 49541
34926 52116
34926 53196
34926 58588
34926 61777
13728 34931
24408 34931
25717 34931
33545 34931
34931 38823
34931 60869
34931 68024
35280 60926
35280 66017
2317 35424
13648 35424
19660 35424
22838 35424
24394 35424
35424 36860
35424 41687
35424 46695
35424 54424
35424 59077
35424 61129
35424 63113
19684 35481
20670 35481
35481 57605
35481 59730
35606 35630
35606 48570
35606 49541
35606 53196
35606 61742
35606 61777
29181 35630
35630 48570
35630 53196
35630 61777
35280 35750
35750 60926
35750 66017
457 36010
7522 36010
8465 36010
18165 36010
27587 36010
28083 36010
36010 40262
36010 45319
36010 50568
36010 52116
36010 66017
4389 36103
4983 36103
6977 36103
22502 36103
28651 36103
28971 36103
36103 44805
36103 45526
36103 56583
36103 57273
14762 36772
36772 66474
8188 36860
12981 36860
16164 36860
16610 36860
21669 36860
24394 36860
26021 36860
30160 36860
36860 44934
36860 45385
36860 57738
36860 59077
36860 63113
36860 66820
2794 37025
15083 37025
37025 39085
37025 47901
37025 51030
3922 37393
4892 37393
10408 37393
13153 37393
37393 56185
37393 57052
37393 57209
37393 65303
3737 37932
13648 37932
22838 37932
24394 37932
31612 37932
32368 37932
33029 37932
33200 37932
37932 40517
11403 37939
13937 37939
24702 37939
34926 37939
35606 37939
35630 37939
37939 48570
37939 53196
37939 61777
361 37963
5339 37963
6055 37963
6254 37963
6517 37963
6543 37963
10431 37963
11078 37963
15618 37963
16278 37963
23825 37963
24711 37963
26398 37963
37963 38055
37963 38500
37963 39085
37963 40435
37963 42819
37963 46344
37963 47542
37963 48098
37963 49074
37963 49958
37963 51294
37963 51840
37963 53450
37963 55443
2794 37983
15083 37983
37025 37983
37983 39085
37983 47901
37983 51030
361 38055
5339 38055
6055 38055
6517 38055
6543 38055
10431 38055
11078 38055
15618 38055
16278 38055
23825 38055
26398 38055
38055 39085
38055 40435
38055 42819
38055 46344
38055 47542
38055 48098
38055 49074
38055 49958
38055 53450
7136 38112
8661 38112
8672 38112
9082 38112
18168 38112
31670 38112
32661 38112
34142 38112
38112 38826
38112 38892
38112 40675
361 38500
5339 38500
6055 38500
6254 38500
6517 38500
6543 38500
10431 38500
11078 38500
15618 38500
16278 38500
23825 38500
24711 38500
26398 38500
38055 38500
38500 39085
38500 40435
38500 42819
38500 46344
38500 47542
38500 48098
38500 49074
38500 49958
38500 51840
38500 53450
38500 55443
5999 38615
10087 38615
11084 38615
12193 38615
38615 66289
38823 60869
38823 68024
7136 38826
8661 38826
8672 38826
31670 38826
38826 38892
8307 38965
10598 38965
14945 38965
16685 38965
16687 38965
22726 38965
23687 38965
29335 38965
31503 38965
32719 38965
38965 40370
38965 57830
38965 61292
38965 63707
38965 65091
38965 65168
38965 67872
38965 68368
361 39085
2794 39085
5339 39085
6055 39085
6517 39085
6543 39085
10431 39085
11078 39085
15083 39085
15618 39085
16278 39085
23825 39085
26398 39085
39085 40435
39085 42819
39085 46344
39085 47542
39085 47901
39085 48098
39085 49074
39085 49958
39085 51030
39085 53450
2794 39460
15083 39460
37025 39460
37983 39460
39085 39460
39460 47901
39460 51030
29437 39659
33650 39659
33755 39659
39659 46064
22838 39723
29181 39723
35630 39723
39723 49541
39723 60926
27587 40262
35750 40262
40262 50568
40262 52116
40262 66017
32719 40370
40370 57830
3737 40517
12981 40517
13648 40517
22838 40517
27312 40517
32368 40517
36860 40517
39723 40517
40517 48022
40517 56559
40517 59077
40517 63966
40517 66135
7136 40675
8661 40675
8672 40675
9082 40675
18168 40675
31670 40675
32661 40675
34142 40675
38826 40675
38892 40675
25569 40894
40894 55259
40894 67012
24394 41687
29181 41687
36103 41687
41687 61742
361 42819
6055 42819
6517 42819
6543 42819
11078 42819
16278 42819
40435 42819
42819 47542
42819 48098
42819 49074
4389 44805
4983 44805
6977 44805
22502 44805
28651 44805
28971 44805
44805 45526
44805 56583
44805 57273
4503 44934
4521 44934
20394 44934
40894 44934
44934 67012
24959 45079
27587 45079
29181 45079
34735 45079
45079 45844
45079 46695
45079 48973
8465 45319
35606 45319
35750 45319
45319 48570
45319 52116
45319 60926
4503 45385
4521 45385
40894 45385
44934 45385
45385 48022
45385 57738
45385 67012
22502 45526
28651 45526
24959 45844
27587 45844
45844 61742
33755 46001
46001 46064
457 46139
3306 46139
12981 46139
29291 46139
29546 46139
29635 46139
33715 46139
33755 46139
44934 46139
45319 46139
46139 50568
46139 54424
46139 66995
29373 46237
29595 46237
29635 46237
33454 46237
33617 46237
33650 46237
46237 56008
46237 59077
361 46344
6055 46344
6517 46344
6543 46344
11078 46344
16278 46344
23825 46344
26398 46344
40435 46344
42819 46344
46344 47542
46344 48098
46344 49074
46344 49958
8188 46695
21669 46695
27587 46695
30160 46695
33755 46695
34735 46695
36860 46695
41687 46695
46695 48973
46695 59077
46695 61129
46695 63113
40435 47542
47542 48098
47542 49074
47901 51030
14762 47943
36772 47943
47943 66474
40894 48022
40435 48098
4503 48192
4521 48192
5187 48192
13648 48192
19660 48192
22838 48192
24394 48192
27312 48192
35424 48192
46695 48192
48192 54424
48192 56559
48192 59077
48192 59471
48192 61129
48192 62227
48192 66135
48570 53196
20394 48973
24959 48973
27587 48973
34735 48973
48973 66017
40435 49074
48098 49074
7136 49304
8661 49304
8672 49304
9082 49304
18168 49304
31670 49304
32661 49304
34142 49304
38112 49304
38826 49304
38892 49304
40675 49304
49304 51382
49304 65199
3465 49541
27587 49541
29181 49541
44934 49541
48570 49541
49541 49600
49541 50568
27587 49600
30160 49600
20394 49939
21858 49939
30160 49939
33755 49939
361 49958
6055 49958
6517 49958
6543 49958
11078 49958
16278 49958
40435 49958
42819 49958
47542 49958
48098 49958
49074 49958
27587 50568
29595 50568
33755 50568
50568 60926
50568 66017
361 51294
5339 51294
6055 51294
6254 51294
6517 51294
6543 51294
10431 51294
11078 51294
15618 51294
16278 51294
23825 51294
24711 51294
26398 51294
38055 51294
38500 51294
39085 51294
40435 51294
42819 51294
46344 51294
47542 51294
48098 51294
49074 51294
49958 51294
51294 51840
51294 53450
51294 55443
7136 51382
8661 51382
8672 51382
9082 51382
18168 51382
31670 51382
32661 51382
34142 51382
38112 51382
38826 51382
38892 51382
40675 51382
361 51840
5339 51840
6055 51840
6517 51840
6543 51840
10431 51840
11078 51840
15618 51840
16278 51840
23825 51840
24711 51840
26398 51840
38055 51840
39085 51840
40435 51840
42819 51840
46344 51840
47542 51840
48098 51840
49074 51840
49958 51840
51840 53450
51840 55443
14762 51985
36772 51985
47943 51985
51985 66474
52116 66017
5660 52762
7136 52762
8661 52762
8672 52762
8979 52762
9082 52762
15792 52762
16496 52762
18168 52762
23701 52762
31670 52762
32661 52762
34142 52762
38112 52762
38826 52762
38892 52762
40675 52762
49304 52762
51382 52762
52762 54845
52762 56916
52762 65199
4389 53444
4983 53444
6397 53444
6977 53444
22502 53444
28651 53444
28971 53444
36103 53444
44805 53444
45526 53444
53444 56583
53444 57273
361 53450
5339 53450
6055 53450
6517 53450
6543 53450
11078 53450
15618 53450
16278 53450
23825 53450
26398 53450
40435 53450
42819 53450
46344 53450
47542 53450
48098 53450
49074 53450
49958 53450
457 54424
13648 54424
554 54785
2317 54785
3737 54785
5187 54785
13648 54785
16610 54785
18533 54785
20519 54785
22552 54785
25569 54785
27312 54785
32368 54785
33755 54785
33847 54785
36860 54785
37932 54785
40517 54785
40894 54785
45319 54785
48022 54785
48192 54785
49939 54785
54424 54785
54785 55259
54785 55835
54785 56559
54785 58887
54785 59077
54785 59471
54785 66135
7136 54845
8661 54845
8672 54845
8979 54845
9082 54845
15792 54845
16496 54845
18168 54845
23701 54845
31670 54845
32661 54845
34142 54845
38112 54845
38826 54845
38892 54845
40675 54845
49304 54845
51382 54845
54845 56916
54845 65199
361 55443
5339 55443
6055 55443
6517 55443
6543 55443
10431 55443
11078 55443
15618 55443
16278 55443
23825 55443
26398 55443
38055 55443
39085 55443
40435 55443
42819 55443
46344 55443
47542 55443
48098 55443
49074 55443
49958 55443
53450 55443
3737 55835
5187 55835
13648 55835
16610 55835
19660 55835
20394 55835
22838 55835
25569 55835
31612 55835
33200 55835
40517 55835
44934 55835
48192 55835
49600 55835
49939 55835
55835 59077
55835 59471
29509 56008
29595 56008
29635 56008
33715 56008
56185 57209
22838 56559
33200 56559
4389 56583
4983 56583
6977 56583
22502 56583
28651 56583
28971 56583
45526 56583
56583 57273
7136 56916
8661 56916
8672 56916
8979 56916
9082 56916
15792 56916
16496 56916
18168 56916
23701 56916
31670 56916
32661 56916
34142 56916
38112 56916
38826 56916
38892 56916
40675 56916
49304 56916
51382 56916
56916 65199
3922 57052
4892 57052
13153 57052
56185 57052
57052 57209
57052 65303
22502 57273
28651 57273
45526 57273
57605 59730
26021 57738
35280 57738
57738 60926
35606 58588
45319 58588
45844 58588
48570 58588
58588 61742
58588 61777
554 58887
2317 58887
3465 58887
5187 58887
22552 58887
25569 58887
30160 58887
31612 58887
33847 58887
48192 58887
55835 58887
457 59077
2317 59077
4503 59077
4521 59077
8188 59077
13648 59077
16164 59077
19660 59077
22838 59077
24394 59077
27587 59077
39723 59077
40894 59077
41687 59077
59077 61129
3737 59471
16610 59471
24394 59471
27587 59471
30160 59471
30863 59471
34735 59471
35424 59471
36860 59471
46695 59471
49600 59471
55259 59471
56559 59471
59471 61129
59471 66135
1616 60445
4389 60445
4983 60445
6397 60445
6977 60445
12459 60445
14906 60445
22502 60445
28651 60445
28971 60445
33431 60445
36103 60445
44805 60445
45526 60445
53444 60445
56583 60445
57273 60445
60445 66171
1035 60933
12334 60933
19684 60933
20670 60933
35481 60933
57605 60933
59730 60933
60933 60935
1035 60935
12334 60935
19684 60935
20670 60935
35481 60935
57605 60935
59730 60935
2317 61129
8188 61129
19660 61129
30160 61129
33755 61129
32719 61292
40370 61292
57830 61292
457 61475
21858 61475
24295 61475
28083 61475
33715 61475
45844 61475
61475 61742
20394 61742
24394 61742
24959 61742
27587 61742
48570 61742
48973 61742
48570 61777
53196 61777
4503 62227
4521 62227
8188 62227
24394 62227
26021 62227
27587 62227
30160 62227
34735 62227
45844 62227
49600 62227
60926 62227
8307 62494
10598 62494
14945 62494
16685 62494
16687 62494
22726 62494
23072 62494
23687 62494
29335 62494
31503 62494
32719 62494
38965 62494
40370 62494
57830 62494
61292 62494
62494 63707
62494 65091
62494 65168
62494 67872
62494 68368
273 63113
457 63113
13648 63113
16164 63113
21858 63113
22838 63113
24295 63113
25569 63113
27312 63113
28320 63113
33200 63113
34071 63113
40894 63113
41687 63113
44934 63113
55259 63113
59077 63113
62227 63113
10598 63707
16685 63707
16687 63707
31503 63707
32719 63707
40370 63707
57830 63707
61292 63707
63707 67872
63707 68368
2794 64033
15083 64033
37025 64033
37983 64033
39085 64033
39460 64033
47901 64033
51030 64033
14762 64577
19714 64577
31860 64577
36772 64577
47943 64577
51985 64577
64577 66474
8307 65091
10598 65091
14945 65091
16685 65091
16687 65091
22726 65091
23687 65091
29335 65091
31503 65091
32719 65091
40370 65091
57830 65091
61292 65091
63707 65091
65091 65168
65091 67872
65091 68368
10598 65168
16685 65168
16687 65168
22726 65168
29335 65168
31503 65168
32719 65168
40370 65168
57830 65168
61292 65168
63707 65168
65168 67872
65168 68368
7136 65199
8661 65199
8672 65199
9082 65199
18168 65199
31670 65199
32661 65199
34142 65199
38112 65199
38826 65199
38892 65199
40675 65199
51382 65199
3922 65303
4892 65303
13153 65303
56185 65303
57209 65303
273 66135
2317 66135
13937 66135
21669 66135
21858 66135
27312 66135
30160 66135
36860 66135
39723 66135
48022 66135
49939 66135
54424 66135
55259 66135
56559 66135
59077 66135
63113 66135
4389 66171
4983 66171
6397 66171
6977 66171
12459 66171
22502 66171
28651 66171
28971 66171
33431 66171
36103 66171
44805 66171
45526 66171
53444 66171
56583 66171
57273 66171
5999 66289
10087 66289
11084 66289
12193 66289
14762 66474
24394 66689
29437 66689
29546 66689
33454 66689
33512 66689
33617 66689
33715 66689
46001 66689
6975 66820
26021 66820
27926 66820
34071 66820
35280 66820
45385 66820
57738 66820
60926 66820
62227 66820
29595 66932
50568 66932
60926 66932
10598 67872
16685 67872
16687 67872
32719 67872
40370 67872
57830 67872
61292 67872
46064 68024
60869 68024
5999 68179
10087 68179
11084 68179
12193 68179
34477 68179
38615 68179
66289 68179
10598 68368
16685 68368
16687 68368
32719 68368
40370 68368
57830 68368
61292 68368
67872 68368
