0 1
0 5
0 6
0 17
0 18
0 64
0 65
0 74
0 88
0 103
0 146
0 166
0 177
0 178
0 215
0 218
0 221
0 222
0 223
0 226
0 238
0 250
0 268
0 283
0 309
0 316
0 368
0 377
0 380
0 459
0 498
0 560
0 581
1 17
1 21
1 74
1 82
1 84
1 85
1 106
1 121
1 127
1 128
1 142
1 146
1 147
1 155
1 187
1 189
1 199
1 215
1 218
1 221
1 222
1 225
1 232
1 250
1 254
1 255
1 268
1 280
1 284
1 310
1 316
1 351
1 368
1 377
1 450
1 459
1 495
1 537
1 548
1 549
1 560
1 568
2 3
2 4
2 5
2 6
2 13
2 54
2 55
2 56
2 57
2 58
2 59
2 62
2 63
2 64
2 86
2 89
2 96
2 107
2 114
2 126
2 131
2 132
2 137
2 138
2 158
2 160
2 162
2 164
2 166
2 174
2 194
2 195
2 208
2 211
2 238
2 249
2 252
2 271
2 281
2 283
2 285
2 286
2 300
2 305
2 308
2 333
2 405
2 408
2 409
2 411
2 412
2 434
2 481
2 489
2 494
2 506
2 520
2 546
2 564
2 586
2 612
2 665
2 685
2 698
2 738
2 809
2 812
2 845
2 859
2 880
2 896
2 971
3 4
3 6
3 46
3 55
3 56
3 57
3 58
3 59
3 62
3 63
3 81
3 89
3 107
3 114
3 128
3 137
3 138
3 158
3 160
3 166
3 174
3 183
3 194
3 195
3 208
3 210
3 211
3 236
3 249
3 252
3 256
3 271
3 272
3 281
3 283
3 286
3 303
3 371
3 405
3 408
3 411
3 412
3 434
3 473
3 481
3 520
3 601
3 665
3 685
3 812
3 845
3 859
3 880
3 932
3 971
4 6
4 13
4 54
4 55
4 56
4 57
4 58
4 59
4 62
4 63
4 81
4 82
4 89
4 96
4 107
4 114
4 121
4 126
4 131
4 137
4 138
4 142
4 145
4 158
4 160
4 162
4 166
4 169
4 170
4 174
4 183
4 194
4 195
4 208
4 211
4 252
4 256
4 271
4 281
4 282
4 283
4 285
4 286
4 301
4 303
4 305
4 329
4 405
4 408
4 411
4 412
4 424
4 430
4 434
4 481
4 520
4 533
4 552
4 564
4 586
4 612
4 665
4 685
4 698
4 738
4 809
4 812
4 845
4 859
4 880
4 896
4 971
5 6
5 7
5 11
5 21
5 24
5 29
5 34
5 35
5 41
5 42
5 47
5 53
5 55
5 57
5 58
5 59
5 63
5 64
5 74
5 82
5 89
5 96
5 105
5 106
5 115
5 128
5 132
5 133
5 135
5 141
5 154
5 157
5 163
5 169
5 170
5 171
5 177
5 183
5 184
5 189
5 191
5 194
5 195
5 198
5 201
5 207
5 209
5 211
5 215
5 218
5 232
5 234
5 236
5 237
5 242
5 243
5 249
5 252
5 255
5 261
5 269
5 271
5 272
5 281
5 283
5 284
5 285
5 286
5 291
5 302
5 303
5 305
5 306
5 308
5 309
5 312
5 318
5 325
5 327
5 333
5 337
5 346
5 351
5 357
5 362
5 375
5 379
5 405
5 408
5 411
5 417
5 419
5 420
5 423
5 430
5 437
5 438
5 440
5 445
5 450
5 455
5 458
5 462
5 464
5 481
5 486
5 489
5 492
5 495
5 520
5 581
5 611
5 738
5 809
5 820
5 828
5 859
6 21
6 54
6 55
6 56
6 57
6 58
6 59
6 63
6 64
6 79
6 89
6 95
6 96
6 126
6 128
6 132
6 137
6 141
6 157
6 168
6 169
6 170
6 181
6 183
6 184
6 191
6 194
6 195
6 204
6 206
6 211
6 232
6 234
6 237
6 252
6 272
6 275
6 281
6 284
6 285
6 286
6 290
6 296
6 305
6 308
6 316
6 327
6 337
6 346
6 362
6 375
6 376
6 377
6 379
6 389
6 397
6 408
6 411
6 412
6 418
6 426
6 430
6 438
6 440
6 458
6 473
6 481
6 486
6 489
6 515
6 520
6 549
6 552
6 562
6 611
6 665
6 667
6 685
6 738
6 845
6 859
6 880
6 949
7 11
7 12
7 19
7 44
7 62
7 86
7 141
7 161
7 212
7 222
7 249
7 362
7 365
7 420
7 421
7 422
7 430
7 498
7 506
7 537
7 546
7 661
7 856
10 11
10 13
10 20
10 21
10 25
10 36
10 44
10 64
10 69
10 82
10 86
10 89
10 96
10 105
10 121
10 133
10 142
10 143
10 160
10 173
10 256
10 271
10 282
10 300
10 306
10 325
10 326
10 327
10 329
10 339
10 340
10 366
10 400
10 405
10 409
10 434
10 508
10 509
10 564
10 971
11 12
11 19
11 20
11 21
11 44
11 64
11 92
11 106
11 128
11 129
11 133
11 141
11 159
11 161
11 183
11 209
11 211
11 233
11 300
11 327
11 362
11 365
11 400
11 420
11 421
11 430
11 434
11 441
11 498
11 506
11 518
11 611
11 661
12 13
12 14
12 19
12 44
12 62
12 82
12 86
12 121
12 141
12 160
12 161
12 166
12 183
12 249
12 300
12 362
12 365
12 419
12 420
12 430
12 441
12 494
12 498
12 560
12 564
12 661
12 856
12 896
13 15
13 19
13 21
13 23
13 25
13 26
13 27
13 29
13 30
13 32
13 33
13 35
13 36
13 38
13 39
13 40
13 47
13 51
13 53
13 56
13 58
13 63
13 65
13 69
13 79
13 83
13 84
13 87
13 93
13 94
13 95
13 96
13 108
13 113
13 114
13 118
13 121
13 126
13 128
13 129
13 130
13 135
13 137
13 145
13 146
13 147
13 164
13 165
13 167
13 168
13 169
13 170
13 171
13 172
13 177
13 179
13 183
13 184
13 190
13 191
13 197
13 199
13 207
13 209
13 210
13 211
13 214
13 236
13 238
13 242
13 244
13 255
13 263
13 271
13 272
13 278
13 280
13 281
13 285
13 286
13 290
13 301
13 302
13 303
13 304
13 305
13 306
13 318
13 325
13 326
13 327
13 329
13 333
13 336
13 337
13 339
13 340
13 342
13 346
13 351
13 356
13 357
13 361
13 371
13 375
13 390
13 409
13 413
13 418
13 420
13 421
13 423
13 440
13 443
13 444
13 445
13 450
13 458
13 474
13 478
13 481
13 483
13 489
13 506
13 509
13 515
13 520
13 526
13 550
13 552
13 581
13 590
13 655
13 661
13 667
13 685
13 698
13 748
13 809
13 812
13 820
13 949
14 18
14 35
14 41
14 47
14 51
14 53
14 61
14 64
14 65
14 79
14 85
14 86
14 93
14 103
14 128
14 129
14 130
14 133
14 141
14 167
14 168
14 172
14 178
14 181
14 196
14 203
14 205
14 206
14 221
14 226
14 231
14 232
14 256
14 280
14 283
14 284
14 290
14 291
14 292
14 312
14 339
14 368
14 380
14 389
14 390
14 394
14 419
14 426
14 430
14 434
14 440
14 450
14 473
14 482
14 486
14 493
14 498
14 515
14 526
14 537
14 562
14 593
14 776
14 918
15 16
15 45
15 46
15 62
15 82
15 121
15 128
15 160
15 162
15 164
15 174
15 183
15 209
15 211
15 269
15 272
15 285
15 303
15 362
15 404
15 405
15 420
15 424
15 533
15 820
16 44
16 45
16 46
16 63
16 64
16 68
16 80
16 81
16 93
16 105
16 106
16 107
16 115
16 121
16 128
16 132
16 153
16 157
16 164
16 169
16 170
16 174
16 183
16 187
16 190
16 196
16 209
16 210
16 211
16 221
16 222
16 249
16 255
16 258
16 263
16 269
16 280
16 281
16 282
16 283
16 290
16 295
16 304
16 305
16 308
16 311
16 337
16 338
16 340
16 355
16 356
16 357
16 362
16 363
16 367
16 375
16 379
16 395
16 404
16 405
16 424
16 434
16 489
16 495
16 518
16 543
16 748
16 820
16 828
17 18
17 21
17 23
17 41
17 42
17 62
17 74
17 82
17 83
17 85
17 86
17 87
17 105
17 106
17 107
17 115
17 121
17 142
17 145
17 146
17 147
17 153
17 154
17 155
17 160
17 162
17 163
17 166
17 173
17 177
17 180
17 189
17 212
17 215
17 218
17 221
17 222
17 223
17 225
17 226
17 233
17 249
17 252
17 253
17 254
17 255
17 269
17 282
17 283
17 295
17 308
17 309
17 310
17 311
17 312
17 314
17 316
17 333
17 340
17 342
17 363
17 366
17 378
17 393
17 404
17 405
17 422
17 424
17 427
17 434
17 441
17 459
17 467
17 473
17 474
17 493
17 494
17 495
17 518
17 533
17 546
17 612
17 615
17 654
17 671
17 932
17 950
18 53
18 62
18 74
18 82
18 84
18 85
18 86
18 103
18 104
18 107
18 115
18 121
18 133
18 143
18 146
18 155
18 160
18 166
18 167
18 177
18 182
18 201
18 215
18 218
18 221
18 222
18 223
18 225
18 232
18 249
18 258
18 280
18 295
18 301
18 309
18 310
18 314
18 365
18 366
18 376
18 419
18 420
18 424
18 533
19 42
19 44
19 61
19 62
19 83
19 86
19 107
19 121
19 129
19 141
19 142
19 155
19 160
19 161
19 166
19 183
19 184
19 249
19 268
19 288
19 362
19 365
19 366
19 405
19 420
19 421
19 422
19 430
19 434
19 441
19 459
19 473
19 506
19 513
19 533
19 549
19 550
19 560
19 661
19 856
20 21
20 28
20 42
20 62
20 68
20 74
20 80
20 81
20 82
20 83
20 86
20 87
20 92
20 96
20 106
20 118
20 121
20 127
20 137
20 142
20 145
20 160
20 163
20 166
20 173
20 183
20 187
20 188
20 189
20 215
20 222
20 223
20 253
20 271
20 282
20 301
20 306
20 326
20 327
20 329
20 366
20 400
20 409
20 420
20 424
20 459
20 462
20 467
20 480
20 495
20 520
20 533
20 537
20 560
20 932
20 971
21 28
21 29
21 36
21 41
21 42
21 44
21 46
21 62
21 64
21 68
21 74
21 80
21 81
21 82
21 83
21 86
21 87
21 92
21 96
21 105
21 106
21 107
21 114
21 115
21 118
21 121
21 127
21 128
21 129
21 137
21 145
21 146
21 152
21 160
21 166
21 169
21 173
21 174
21 183
21 184
21 187
21 188
21 189
21 210
21 211
21 212
21 214
21 221
21 222
21 249
21 253
21 254
21 256
21 272
21 278
21 280
21 282
21 283
21 296
21 300
21 301
21 303
21 306
21 308
21 314
21 325
21 326
21 327
21 329
21 333
21 346
21 355
21 357
21 363
21 365
21 367
21 371
21 375
21 400
21 405
21 409
21 420
21 422
21 424
21 434
21 459
21 462
21 467
21 480
21 486
21 489
21 495
21 513
21 518
21 520
21 533
21 537
21 548
21 550
21 560
21 581
21 615
21 671
21 820
21 896
21 932
23 24
23 25
23 26
23 27
23 28
23 29
23 30
23 31
23 32
23 33
23 34
23 35
23 36
23 37
23 38
23 39
23 40
23 41
23 42
23 62
23 82
23 83
23 86
23 87
23 96
23 107
23 113
23 115
23 116
23 121
23 128
23 135
23 142
23 151
23 153
23 160
23 165
23 166
23 170
23 171
23 172
23 212
23 215
23 229
23 249
23 251
23 254
23 261
23 301
23 333
23 337
23 367
23 409
23 417
23 421
23 422
23 427
23 434
23 438
23 460
23 464
23 474
23 480
23 494
23 533
23 545
23 546
23 590
23 820
23 932
23 950
24 25
24 26
24 27
24 28
24 29
24 30
24 31
24 32
24 33
24 34
24 35
24 36
24 37
24 38
24 39
24 40
24 64
24 96
24 114
24 151
24 169
24 261
24 367
24 411
24 440
24 455
24 494
24 545
24 590
24 654
25 26
25 27
25 28
25 29
25 30
25 34
25 35
25 36
25 37
25 38
25 40
25 93
25 133
25 160
25 165
25 301
25 339
25 361
25 370
25 409
25 437
25 438
25 459
25 473
25 494
25 533
25 545
25 654
26 27
26 28
26 29
26 30
26 32
26 34
26 35
26 37
26 38
26 40
26 47
26 113
26 135
26 165
26 170
26 171
26 251
26 339
26 370
26 437
26 438
26 442
26 443
26 545
26 590
26 654
26 971
27 28
27 29
27 30
27 31
27 32
27 33
27 34
27 35
27 36
27 37
27 38
27 39
27 40
27 48
27 51
27 62
27 82
27 93
27 116
27 121
27 128
27 133
27 135
27 136
27 151
27 160
27 165
27 170
27 172
27 197
27 251
27 258
27 261
27 301
27 336
27 337
27 338
27 339
27 361
27 370
27 409
27 417
27 437
27 438
27 494
27 545
27 560
27 590
27 917
28 29
28 30
28 31
28 32
28 33
28 34
28 35
28 36
28 37
28 38
28 39
28 40
28 41
28 44
28 46
28 51
28 62
28 63
28 80
28 81
28 82
28 86
28 87
28 93
28 96
28 105
28 106
28 107
28 113
28 114
28 115
28 116
28 121
28 128
28 129
28 133
28 142
28 151
28 160
28 165
28 166
28 168
28 169
28 170
28 172
28 183
28 212
28 229
28 249
28 254
28 256
28 261
28 278
28 282
28 283
28 301
28 303
28 306
28 329
28 333
28 338
28 339
28 340
28 351
28 362
28 363
28 365
28 367
28 371
28 375
28 405
28 409
28 419
28 420
28 424
28 434
28 438
28 473
28 486
28 533
28 545
28 590
28 655
28 820
28 896
28 932
29 30
29 31
29 32
29 33
29 34
29 35
29 36
29 37
29 38
29 39
29 40
29 51
29 62
29 93
29 113
29 116
29 121
29 133
29 151
29 160
29 165
29 169
29 183
29 229
29 261
29 263
29 301
29 339
29 361
29 409
29 417
29 420
29 438
29 443
29 455
29 459
29 473
29 486
29 533
29 545
29 560
29 590
29 971
30 31
30 32
30 33
30 34
30 35
30 36
30 37
30 38
30 39
30 40
30 41
30 44
30 51
30 62
30 82
30 84
30 86
30 93
30 114
30 115
30 116
30 121
30 128
30 129
30 133
30 135
30 136
30 151
30 160
30 165
30 169
30 172
30 229
30 251
30 256
30 261
30 263
30 336
30 337
30 339
30 366
30 367
30 409
30 417
30 420
30 424
30 434
30 437
30 438
30 473
30 545
30 546
30 590
30 820
31 32
31 33
31 34
31 35
31 36
31 37
31 38
31 39
31 40
31 51
31 82
31 84
31 86
31 96
31 107
31 115
31 121
31 123
31 135
31 142
31 143
31 151
31 155
31 162
31 165
31 170
31 186
31 198
31 229
31 254
31 256
31 261
31 282
31 337
31 338
31 361
31 367
31 424
31 427
31 438
31 612
31 932
32 33
32 34
32 35
32 37
32 40
32 93
32 113
32 116
32 151
32 165
32 251
32 261
32 338
32 339
32 361
32 367
32 372
32 417
32 438
32 473
32 533
32 590
32 654
33 34
33 35
33 37
33 38
33 39
33 40
33 86
33 113
33 165
33 169
33 282
33 339
33 370
33 409
33 438
33 443
33 590
33 615
34 35
34 36
34 37
34 38
34 39
34 40
34 54
34 116
34 151
34 165
34 339
34 361
34 434
34 438
34 545
34 590
35 36
35 37
35 38
35 39
35 40
35 51
35 62
35 86
35 107
35 114
35 116
35 121
35 128
35 129
35 151
35 160
35 165
35 168
35 169
35 170
35 183
35 261
35 282
35 301
35 338
35 339
35 367
35 409
35 434
35 438
35 442
35 455
35 464
35 473
35 486
35 533
35 590
35 655
36 37
36 48
36 82
36 86
36 93
36 107
36 113
36 114
36 121
36 127
36 128
36 129
36 160
36 165
36 169
36 170
36 183
36 218
36 301
36 318
36 333
36 367
36 409
36 438
36 442
36 486
36 545
37 38
37 39
37 40
37 48
37 84
37 86
37 96
37 123
37 127
37 151
37 229
37 261
37 338
37 370
37 545
37 590
37 655
37 667
38 39
38 40
38 47
38 48
38 86
38 113
38 115
38 116
38 165
38 170
38 171
38 245
38 258
38 321
38 329
38 339
38 370
38 409
38 417
38 421
38 437
38 438
38 443
38 474
38 547
38 590
39 40
39 48
39 84
39 86
39 93
39 114
39 116
39 133
39 151
39 165
39 229
39 339
39 367
39 370
39 409
39 437
39 455
39 480
39 494
39 560
40 47
40 48
40 93
40 113
40 116
40 135
40 151
40 160
40 165
40 170
40 171
40 245
40 251
40 261
40 318
40 339
40 361
40 370
40 409
40 417
40 427
40 438
40 442
40 443
40 533
40 545
40 547
40 560
40 590
40 917
41 42
41 47
41 51
41 62
41 63
41 82
41 83
41 85
41 86
41 87
41 93
41 94
41 95
41 105
41 107
41 113
41 114
41 115
41 121
41 123
41 128
41 129
41 133
41 136
41 142
41 143
41 152
41 160
41 165
41 166
41 167
41 169
41 171
41 173
41 180
41 196
41 197
41 198
41 199
41 200
41 201
41 203
41 204
41 205
41 206
41 207
41 212
41 215
41 232
41 249
41 254
41 256
41 280
41 282
41 333
41 336
41 342
41 370
41 387
41 434
41 443
41 460
41 464
41 474
41 482
41 483
41 493
41 546
41 581
41 593
41 601
41 612
41 776
41 820
41 908
41 917
41 918
41 932
42 44
42 58
42 64
42 74
42 81
42 83
42 86
42 87
42 105
42 106
42 115
42 128
42 129
42 133
42 143
42 145
42 147
42 160
42 163
42 166
42 169
42 183
42 184
42 187
42 188
42 190
42 199
42 209
42 212
42 215
42 221
42 226
42 243
42 245
42 249
42 255
42 280
42 296
42 300
42 309
42 329
42 333
42 372
42 387
42 405
42 422
42 427
42 434
42 453
42 459
42 473
42 474
42 490
42 492
42 493
42 495
42 560
42 607
42 612
42 667
42 671
42 820
44 51
44 62
44 63
44 81
44 82
44 83
44 86
44 105
44 106
44 107
44 114
44 121
44 128
44 129
44 133
44 141
44 142
44 155
44 160
44 161
44 166
44 183
44 211
44 212
44 249
44 254
44 283
44 300
44 362
44 365
44 366
44 367
44 401
44 405
44 419
44 424
44 430
44 434
44 441
44 459
44 473
44 486
44 498
44 506
44 526
44 533
44 546
44 549
44 550
44 661
44 820
44 856
44 932
45 46
45 62
45 87
45 107
45 142
45 160
45 162
45 164
45 210
45 211
45 269
45 271
45 272
45 282
45 300
45 301
45 371
45 404
45 405
45 419
45 424
45 445
45 533
45 812
45 828
45 932
46 63
46 81
46 82
46 83
46 96
46 106
46 107
46 114
46 121
46 128
46 129
46 132
46 137
46 142
46 145
46 155
46 164
46 169
46 174
46 210
46 211
46 236
46 249
46 252
46 254
46 255
46 256
46 269
46 271
46 272
46 283
46 300
46 303
46 329
46 340
46 355
46 371
46 405
46 424
46 434
46 473
46 495
46 533
46 548
46 748
46 812
46 828
46 932
47 48
47 79
47 86
47 96
47 107
47 113
47 114
47 116
47 129
47 135
47 160
47 165
47 168
47 172
47 245
47 251
47 263
47 280
47 318
47 333
47 339
47 361
47 370
47 409
47 417
47 423
47 427
47 437
47 443
47 444
47 455
47 482
47 483
47 547
47 820
47 971
48 66
48 84
48 96
48 105
48 113
48 114
48 115
48 151
48 165
48 166
48 171
48 211
48 212
48 229
48 245
48 252
48 261
48 263
48 318
48 333
48 338
48 361
48 367
48 370
48 372
48 417
48 423
48 427
48 437
48 442
48 443
48 444
48 455
48 482
48 485
48 486
48 492
48 547
48 560
48 654
51 64
51 65
51 79
51 82
51 85
51 93
51 95
51 113
51 114
51 118
51 121
51 128
51 133
51 141
51 143
51 160
51 165
51 167
51 172
51 196
51 197
51 198
51 199
51 200
51 201
51 204
51 205
51 206
51 232
51 256
51 261
51 280
51 283
51 306
51 346
51 362
51 371
51 375
51 409
51 445
51 486
51 498
51 581
51 593
51 820
51 908
51 917
51 918
53 61
53 65
53 82
53 85
53 103
53 128
53 129
53 157
53 167
53 178
53 182
53 183
53 199
53 215
53 221
53 231
53 232
53 280
53 312
53 380
53 389
53 394
53 397
53 420
53 434
53 440
53 486
53 526
53 537
53 820
54 55
54 56
54 57
54 58
54 59
54 63
54 88
54 89
54 96
54 107
54 126
54 131
54 132
54 137
54 138
54 160
54 166
54 174
54 194
54 208
54 211
54 249
54 252
54 271
54 281
54 285
54 304
54 305
54 411
54 412
54 438
54 481
54 520
54 552
54 665
54 685
54 698
54 738
54 809
54 812
54 949
55 56
55 57
55 58
55 59
55 63
55 86
55 107
55 126
55 131
55 160
55 166
55 194
55 208
55 211
55 252
55 271
55 285
55 305
55 411
55 412
55 481
55 520
55 533
55 552
55 665
55 685
55 698
55 738
55 809
55 949
55 950
56 57
56 58
56 59
56 63
56 89
56 96
56 126
56 137
56 138
56 160
56 174
56 194
56 209
56 211
56 252
56 271
56 281
56 286
56 303
56 305
56 408
56 412
56 481
56 520
56 685
56 698
56 738
56 809
56 845
56 859
56 880
56 949
57 58
57 59
57 63
57 64
57 84
57 88
57 89
57 96
57 107
57 126
57 131
57 137
57 138
57 160
57 174
57 194
57 195
57 208
57 211
57 243
57 252
57 271
57 281
57 285
57 286
57 302
57 303
57 304
57 305
57 408
57 411
57 412
57 460
57 481
57 520
57 552
57 601
57 685
57 698
57 738
57 809
57 812
57 859
57 880
57 949
58 59
58 62
58 63
58 81
58 82
58 83
58 84
58 86
58 87
58 88
58 89
58 96
58 105
58 107
58 115
58 121
58 126
58 129
58 131
58 132
58 137
58 138
58 142
58 145
58 153
58 154
58 155
58 158
58 159
58 160
58 162
58 166
58 174
58 183
58 194
58 195
58 208
58 209
58 210
58 211
58 212
58 215
58 233
58 234
58 243
58 244
58 249
58 252
58 254
58 256
58 271
58 281
58 282
58 283
58 285
58 286
58 288
58 303
58 304
58 305
58 333
58 366
58 371
58 372
58 373
58 404
58 408
58 411
58 412
58 422
58 424
58 434
58 455
58 462
58 481
58 494
58 498
58 518
58 520
58 533
58 546
58 552
58 586
58 601
58 612
58 615
58 654
58 665
58 685
58 698
58 738
58 809
58 812
58 845
58 856
58 859
58 880
58 950
58 963
59 63
59 89
59 96
59 132
59 137
59 138
59 160
59 174
59 194
59 195
59 252
59 281
59 285
59 286
59 303
59 305
59 408
59 412
59 481
59 520
59 586
59 685
59 698
59 738
59 809
59 812
59 845
59 859
59 880
59 949
59 971
60 61
60 95
60 103
60 104
60 105
60 133
60 150
60 157
60 167
60 172
60 177
60 179
60 181
60 182
60 214
60 215
60 231
60 232
60 250
60 275
60 280
60 283
60 295
60 296
60 320
60 321
60 342
60 368
60 376
60 377
60 378
60 379
60 380
60 381
60 385
60 387
60 388
60 389
60 390
60 393
60 394
60 395
60 397
60 420
60 495
61 64
61 95
61 103
61 104
61 123
61 150
61 157
61 160
61 166
61 172
61 177
61 178
61 179
61 181
61 182
61 232
61 250
61 280
61 283
61 295
61 296
61 301
61 320
61 321
61 368
61 376
61 377
61 378
61 379
61 380
61 381
61 387
61 388
61 389
61 390
61 393
61 394
61 395
61 421
61 434
61 440
61 483
61 498
61 533
61 537
62 63
62 64
62 68
62 74
62 79
62 80
62 81
62 82
62 83
62 84
62 86
62 87
62 89
62 93
62 106
62 107
62 113
62 114
62 115
62 128
62 129
62 131
62 132
62 133
62 135
62 137
62 141
62 142
62 143
62 147
62 151
62 152
62 153
62 154
62 158
62 159
62 163
62 164
62 168
62 169
62 170
62 172
62 173
62 174
62 179
62 180
62 183
62 184
62 186
62 187
62 188
62 189
62 190
62 201
62 203
62 206
62 209
62 210
62 211
62 212
62 226
62 233
62 236
62 237
62 238
62 242
62 245
62 249
62 251
62 253
62 254
62 255
62 256
62 258
62 263
62 269
62 280
62 281
62 282
62 283
62 285
62 290
62 292
62 295
62 296
62 300
62 303
62 306
62 310
62 312
62 314
62 329
62 333
62 338
62 340
62 342
62 355
62 356
62 357
62 361
62 362
62 365
62 366
62 367
62 371
62 372
62 375
62 377
62 390
62 393
62 404
62 405
62 417
62 418
62 419
62 423
62 424
62 426
62 427
62 430
62 434
62 441
62 445
62 450
62 453
62 457
62 458
62 459
62 467
62 474
62 478
62 480
62 493
62 494
62 495
62 498
62 506
62 508
62 509
62 518
62 531
62 546
62 548
62 586
62 747
62 748
62 812
62 820
62 856
62 859
63 81
63 82
63 83
63 87
63 88
63 89
63 107
63 114
63 115
63 121
63 126
63 128
63 129
63 131
63 132
63 137
63 138
63 158
63 160
63 162
63 164
63 169
63 174
63 183
63 184
63 194
63 195
63 208
63 209
63 210
63 211
63 212
63 233
63 236
63 243
63 249
63 252
63 254
63 255
63 256
63 269
63 271
63 272
63 278
63 281
63 283
63 285
63 286
63 301
63 303
63 305
63 329
63 355
63 363
63 365
63 366
63 371
63 379
63 405
63 408
63 411
63 412
63 419
63 420
63 434
63 473
63 481
63 486
63 490
63 518
63 520
63 533
63 552
63 564
63 586
63 665
63 685
63 738
63 809
63 812
63 820
63 845
63 859
63 880
63 896
63 932
63 971
64 65
64 66
64 68
64 69
64 74
64 80
64 87
64 89
64 93
64 94
64 95
64 96
64 103
64 105
64 106
64 107
64 108
64 113
64 115
64 116
64 128
64 129
64 131
64 133
64 141
64 142
64 157
64 164
64 165
64 166
64 168
64 169
64 170
64 171
64 172
64 173
64 177
64 181
64 183
64 184
64 191
64 196
64 197
64 198
64 199
64 201
64 209
64 211
64 212
64 215
64 222
64 223
64 229
64 232
64 234
64 238
64 243
64 244
64 249
64 269
64 271
64 280
64 281
64 282
64 290
64 292
64 300
64 302
64 305
64 306
64 309
64 318
64 325
64 326
64 329
64 357
64 367
64 372
64 375
64 376
64 379
64 389
64 395
64 397
64 400
64 405
64 411
64 412
64 417
64 419
64 420
64 430
64 434
64 438
64 440
64 445
64 450
64 455
64 458
64 482
64 489
64 492
64 498
64 506
64 515
64 549
64 601
64 611
64 615
64 665
64 685
64 820
64 828
64 859
64 918
64 950
65 86
65 92
65 94
65 107
65 129
65 130
65 133
65 135
65 160
65 169
65 172
65 176
65 177
65 178
65 197
65 199
65 200
65 204
65 206
65 231
65 232
65 275
65 280
65 282
65 285
65 290
65 291
65 320
65 325
65 357
65 362
65 366
65 371
65 377
65 380
65 401
65 409
65 413
65 426
65 430
65 434
65 440
65 450
65 457
65 483
65 486
65 493
65 498
65 515
65 526
65 533
65 543
65 562
65 568
65 581
65 776
66 96
66 108
66 121
66 146
66 160
66 211
66 215
66 252
66 258
66 329
66 338
66 375
66 389
66 474
66 478
66 480
66 513
66 560
66 611
66 654
66 661
68 69
68 80
68 82
68 86
68 92
68 106
68 107
68 121
68 142
68 160
68 173
68 183
68 184
68 212
68 282
68 300
68 301
68 306
68 329
68 357
68 366
68 400
68 418
68 419
68 420
68 424
68 473
68 474
68 494
68 508
68 509
68 549
68 550
68 667
68 671
68 932
69 80
69 81
69 86
69 87
69 105
69 107
69 108
69 141
69 160
69 166
69 173
69 183
69 184
69 187
69 188
69 189
69 190
69 212
69 282
69 306
69 311
69 325
69 329
69 356
69 362
69 400
69 409
69 418
69 420
69 424
69 434
69 467
69 473
69 480
69 508
69 509
69 549
69 550
69 667
69 671
69 747
74 82
74 85
74 86
74 87
74 105
74 106
74 107
74 116
74 121
74 142
74 152
74 166
74 173
74 177
74 187
74 188
74 212
74 215
74 218
74 221
74 222
74 223
74 225
74 226
74 231
74 254
74 268
74 282
74 308
74 309
74 310
74 311
74 312
74 314
74 316
74 340
74 366
74 400
74 419
74 424
74 438
74 459
74 460
74 480
74 482
74 485
74 495
74 498
74 513
74 537
74 549
74 560
74 950
79 86
79 107
79 115
79 116
79 121
79 128
79 133
79 152
79 160
79 162
79 165
79 166
79 205
79 226
79 282
79 290
79 339
79 340
79 417
79 419
79 420
79 445
79 482
79 531
79 581
79 601
79 820
80 81
80 82
80 92
80 96
80 105
80 106
80 107
80 114
80 121
80 128
80 129
80 137
80 142
80 160
80 169
80 174
80 183
80 184
80 187
80 188
80 189
80 222
80 243
80 249
80 253
80 256
80 271
80 282
80 286
80 303
80 329
80 340
80 356
80 357
80 367
80 375
80 379
80 395
80 424
80 459
80 460
80 473
80 474
80 480
80 490
80 508
80 546
80 549
80 671
80 747
80 880
80 950
81 82
81 83
81 86
81 87
81 105
81 106
81 107
81 108
81 114
81 121
81 128
81 129
81 137
81 141
81 142
81 145
81 146
81 155
81 160
81 161
81 162
81 166
81 169
81 170
81 183
81 184
81 188
81 189
81 211
81 212
81 215
81 222
81 225
81 249
81 252
81 254
81 256
81 280
81 283
81 300
81 301
81 303
81 306
81 329
81 333
81 351
81 356
81 357
81 362
81 363
81 365
81 367
81 371
81 375
81 400
81 405
81 409
81 412
81 418
81 419
81 420
81 424
81 434
81 460
81 467
81 473
81 474
81 478
81 486
81 490
81 494
81 508
81 509
81 518
81 533
81 549
81 550
81 564
81 568
81 607
81 667
81 671
81 685
81 896
81 932
82 83
82 84
82 86
82 87
82 93
82 96
82 104
82 105
82 106
82 107
82 114
82 115
82 116
82 121
82 123
82 127
82 128
82 129
82 130
82 131
82 132
82 133
82 137
82 142
82 143
82 145
82 147
82 150
82 151
82 152
82 153
82 154
82 158
82 160
82 161
82 163
82 165
82 166
82 168
82 169
82 170
82 172
82 173
82 179
82 180
82 183
82 184
82 186
82 187
82 188
82 189
82 190
82 191
82 199
82 201
82 203
82 209
82 210
82 211
82 212
82 214
82 215
82 218
82 221
82 222
82 225
82 226
82 233
82 234
82 236
82 245
82 249
82 252
82 255
82 256
82 261
82 263
82 269
82 278
82 280
82 281
82 282
82 283
82 285
82 290
82 292
82 295
82 296
82 303
82 304
82 310
82 314
82 318
82 325
82 326
82 327
82 329
82 333
82 337
82 338
82 340
82 355
82 356
82 357
82 362
82 365
82 366
82 367
82 368
82 371
82 372
82 373
82 376
82 377
82 385
82 393
82 395
82 401
82 404
82 419
82 420
82 422
82 424
82 426
82 427
82 438
82 441
82 445
82 450
82 453
82 458
82 462
82 464
82 474
82 486
82 489
82 490
82 493
82 494
82 495
82 508
82 509
82 518
82 526
82 531
82 533
82 543
82 546
82 548
82 549
82 550
82 552
82 568
82 601
82 612
82 747
82 748
82 820
82 856
82 859
82 932
82 963
83 84
83 86
83 87
83 96
83 105
83 106
83 107
83 113
83 114
83 115
83 118
83 121
83 128
83 131
83 133
83 141
83 142
83 143
83 145
83 147
83 152
83 153
83 154
83 160
83 162
83 163
83 166
83 168
83 173
83 180
83 186
83 191
83 199
83 203
83 209
83 210
83 211
83 212
83 214
83 221
83 223
83 233
83 236
83 243
83 249
83 252
83 253
83 255
83 256
83 269
83 278
83 280
83 282
83 283
83 285
83 288
83 290
83 292
83 296
83 308
83 318
83 329
83 333
83 340
83 355
83 365
83 366
83 368
83 372
83 373
83 393
83 395
83 404
83 405
83 420
83 424
83 430
83 434
83 450
83 453
83 458
83 474
83 478
83 481
83 492
83 494
83 495
83 506
83 513
83 518
83 533
83 546
83 586
83 589
83 601
83 612
83 615
83 654
83 747
83 812
83 820
83 856
83 932
83 963
84 86
84 87
84 105
84 107
84 113
84 115
84 118
84 121
84 127
84 142
84 152
84 160
84 162
84 166
84 174
84 180
84 209
84 210
84 211
84 229
84 233
84 243
84 244
84 249
84 250
84 252
84 253
84 254
84 268
84 269
84 272
84 282
84 288
84 295
84 305
84 318
84 326
84 333
84 336
84 338
84 366
84 372
84 373
84 393
84 404
84 411
84 419
84 422
84 441
84 442
84 443
84 444
84 453
84 467
84 474
84 478
84 485
84 492
84 493
84 494
84 513
84 533
84 546
84 549
84 560
84 601
84 612
84 615
84 654
85 86
85 142
85 146
85 147
85 151
85 160
85 218
85 221
85 222
85 226
85 309
85 310
85 312
85 314
85 370
85 443
85 467
85 537
85 820
86 87
86 92
86 93
86 94
86 95
86 96
86 103
86 105
86 106
86 107
86 113
86 114
86 115
86 121
86 128
86 129
86 131
86 132
86 138
86 141
86 142
86 143
86 145
86 151
86 152
86 153
86 154
86 163
86 165
86 166
86 170
86 172
86 173
86 177
86 180
86 184
86 189
86 190
86 191
86 196
86 197
86 201
86 203
86 205
86 206
86 210
86 212
86 215
86 218
86 222
86 223
86 225
86 226
86 229
86 233
86 234
86 236
86 238
86 251
86 256
86 261
86 263
86 271
86 275
86 280
86 283
86 285
86 290
86 295
86 304
86 306
86 310
86 318
86 326
86 340
86 362
86 366
86 368
86 372
86 373
86 377
86 393
86 395
86 400
86 404
86 417
86 421
86 424
86 426
86 427
86 430
86 438
86 441
86 444
86 445
86 450
86 453
86 457
86 458
86 459
86 467
86 480
86 485
86 494
86 498
86 506
86 508
86 518
86 526
86 531
86 533
86 546
86 586
86 590
86 593
86 601
86 611
86 747
86 820
86 932
86 963
87 105
87 106
87 107
87 114
87 115
87 121
87 128
87 129
87 131
87 132
87 137
87 145
87 147
87 152
87 153
87 154
87 155
87 160
87 161
87 163
87 166
87 172
87 173
87 180
87 183
87 187
87 189
87 190
87 208
87 210
87 211
87 212
87 215
87 222
87 223
87 233
87 236
87 243
87 249
87 252
87 253
87 255
87 256
87 258
87 269
87 280
87 282
87 283
87 290
87 296
87 300
87 303
87 304
87 325
87 326
87 329
87 333
87 351
87 363
87 365
87 371
87 372
87 393
87 404
87 405
87 412
87 419
87 422
87 424
87 426
87 427
87 434
87 438
87 441
87 453
87 459
87 473
87 474
87 489
87 490
87 493
87 495
87 506
87 509
87 513
87 518
87 533
87 543
87 545
87 546
87 547
87 552
87 607
87 615
87 654
87 661
87 665
87 812
87 820
87 828
87 856
87 859
87 963
88 89
88 96
88 121
88 129
88 137
88 142
88 183
88 209
88 210
88 211
88 233
88 252
88 271
88 285
88 302
88 303
88 304
88 411
88 533
88 809
89 96
89 107
89 114
89 132
89 136
89 158
89 159
89 160
89 165
89 169
89 183
89 211
89 215
89 238
89 252
89 271
89 285
89 301
89 302
89 303
89 304
89 305
89 333
89 375
89 405
89 408
89 411
89 412
89 423
89 434
89 437
89 438
89 455
89 474
89 482
89 515
89 520
89 552
89 809
89 845
89 859
92 96
92 105
92 127
92 137
92 152
92 160
92 173
92 238
92 326
92 336
92 370
92 373
92 400
92 426
92 434
92 457
92 480
92 498
92 513
92 520
92 685
93 95
93 108
93 114
93 116
93 121
93 128
93 129
93 133
93 135
93 136
93 143
93 165
93 166
93 168
93 169
93 171
93 172
93 176
93 183
93 197
93 201
93 204
93 205
93 261
93 280
93 291
93 301
93 306
93 336
93 337
93 361
93 367
93 373
93 409
93 413
93 417
93 424
93 426
93 438
93 443
93 450
93 458
93 464
93 473
93 482
93 493
93 494
93 513
93 515
93 526
93 543
93 545
93 820
93 971
94 95
94 128
94 167
94 176
94 177
94 196
94 198
94 199
94 200
94 201
94 204
94 205
94 206
94 207
94 214
94 218
94 320
94 342
94 351
94 377
94 440
94 483
94 486
94 494
94 515
94 533
94 593
94 776
94 820
94 908
94 917
94 918
95 123
95 128
95 129
95 143
95 155
95 167
95 181
95 183
95 196
95 197
95 198
95 199
95 200
95 201
95 203
95 204
95 205
95 206
95 207
95 214
95 218
95 232
95 280
95 309
95 342
95 351
95 377
95 450
95 593
95 776
95 820
95 908
95 917
95 918
96 107
96 113
96 114
96 115
96 116
96 121
96 123
96 131
96 135
96 136
96 151
96 160
96 164
96 165
96 169
96 170
96 173
96 209
96 211
96 234
96 236
96 242
96 245
96 251
96 252
96 261
96 263
96 285
96 302
96 303
96 304
96 318
96 325
96 326
96 327
96 329
96 333
96 336
96 337
96 338
96 339
96 340
96 361
96 367
96 370
96 375
96 400
96 408
96 411
96 417
96 423
96 427
96 437
96 438
96 442
96 443
96 444
96 455
96 474
96 481
96 655
103 104
103 123
103 150
103 157
103 160
103 162
103 179
103 181
103 182
103 201
103 211
103 215
103 232
103 250
103 283
103 295
103 296
103 320
103 321
103 342
103 368
103 376
103 377
103 378
103 379
103 380
103 385
103 389
103 390
103 393
103 394
103 395
103 397
103 526
103 537
103 546
104 150
104 155
104 157
104 160
104 179
104 181
104 182
104 250
104 283
104 288
104 295
104 320
104 321
104 368
104 376
104 377
104 379
104 387
104 388
104 389
104 390
104 393
104 394
104 395
104 549
105 106
105 114
105 115
105 121
105 127
105 128
105 129
105 142
105 145
105 147
105 152
105 153
105 154
105 155
105 158
105 159
105 160
105 161
105 163
105 165
105 166
105 169
105 170
105 173
105 180
105 183
105 184
105 187
105 190
105 199
105 203
105 210
105 212
105 215
105 223
105 226
105 233
105 236
105 242
105 243
105 249
105 252
105 255
105 256
105 258
105 269
105 280
105 281
105 282
105 283
105 285
105 288
105 296
105 303
105 310
105 314
105 326
105 327
105 329
105 333
105 340
105 346
105 351
105 355
105 357
105 362
105 363
105 366
105 367
105 371
105 375
105 393
105 400
105 404
105 405
105 412
105 419
105 420
105 422
105 424
105 427
105 434
105 441
105 450
105 453
105 473
105 474
105 478
105 489
105 492
105 493
105 495
105 506
105 508
105 509
105 518
105 533
105 543
105 546
105 550
105 589
105 601
105 607
105 612
105 654
105 667
105 747
105 748
105 820
105 856
105 859
106 107
106 113
106 114
106 128
106 129
106 132
106 133
106 142
106 145
106 147
106 154
106 155
106 160
106 163
106 169
106 183
106 184
106 187
106 188
106 189
106 190
106 210
106 211
106 212
106 221
106 222
106 223
106 226
106 242
106 249
106 253
106 254
106 255
106 256
106 268
106 278
106 280
106 282
106 283
106 290
106 295
106 300
106 303
106 311
106 314
106 329
106 340
106 351
106 355
106 356
106 357
106 363
106 365
106 367
106 371
106 372
106 373
106 377
106 400
106 405
106 419
106 420
106 424
106 434
106 459
106 462
106 467
106 473
106 480
106 486
106 489
106 490
106 494
106 495
106 518
106 531
106 533
106 537
106 546
106 548
106 549
106 550
106 560
106 589
106 607
106 615
106 671
106 747
106 748
106 820
106 828
106 932
107 113
107 114
107 115
107 121
107 127
107 128
107 129
107 131
107 132
107 133
107 137
107 141
107 142
107 147
107 152
107 153
107 154
107 158
107 160
107 161
107 162
107 163
107 164
107 165
107 166
107 169
107 170
107 172
107 173
107 174
107 179
107 180
107 183
107 184
107 187
107 201
107 206
107 207
107 209
107 210
107 211
107 212
107 214
107 221
107 222
107 226
107 233
107 236
107 237
107 249
107 252
107 253
107 254
107 255
107 256
107 258
107 269
107 280
107 281
107 282
107 283
107 284
107 285
107 290
107 295
107 296
107 300
107 303
107 306
107 310
107 314
107 318
107 326
107 327
107 329
107 333
107 338
107 340
107 342
107 355
107 356
107 357
107 361
107 362
107 366
107 367
107 371
107 372
107 375
107 393
107 395
107 400
107 401
107 404
107 405
107 417
107 418
107 420
107 427
107 430
107 434
107 438
107 441
107 450
107 453
107 459
107 467
107 474
107 478
107 480
107 481
107 489
107 490
107 492
107 493
107 494
107 495
107 506
107 509
107 518
107 531
107 550
107 568
107 589
107 601
107 665
107 671
107 747
107 748
107 809
107 812
107 820
107 828
107 856
107 859
107 896
107 932
107 963
108 143
108 155
108 160
108 183
108 190
108 258
108 290
108 300
108 301
108 329
108 356
108 357
108 375
108 405
108 409
108 420
108 473
108 474
108 478
108 494
108 509
108 971
113 114
113 115
113 116
113 129
113 133
113 151
113 160
113 165
113 168
113 169
113 171
113 176
113 177
113 183
113 232
113 245
113 250
113 263
113 280
113 301
113 306
113 318
113 329
113 333
113 338
113 339
113 361
113 367
113 370
113 417
113 419
113 423
113 424
113 426
113 434
113 438
113 442
113 443
113 444
113 455
113 473
113 478
113 483
113 485
113 486
113 494
113 543
113 547
113 932
113 950
113 971
114 115
114 116
114 121
114 128
114 129
114 133
114 137
114 145
114 152
114 154
114 155
114 158
114 160
114 165
114 166
114 168
114 169
114 170
114 171
114 172
114 173
114 183
114 184
114 208
114 210
114 211
114 212
114 215
114 226
114 229
114 234
114 245
114 249
114 252
114 254
114 255
114 256
114 261
114 263
114 278
114 280
114 283
114 290
114 300
114 303
114 318
114 326
114 329
114 333
114 338
114 339
114 340
114 355
114 356
114 361
114 362
114 363
114 365
114 366
114 367
114 371
114 375
114 405
114 411
114 417
114 419
114 420
114 423
114 424
114 426
114 434
114 438
114 442
114 443
114 444
114 455
114 464
114 473
114 485
114 486
114 495
114 531
114 533
114 547
114 564
114 655
114 820
114 896
114 932
114 971
115 116
115 121
115 123
115 128
115 129
115 135
115 136
115 142
115 145
115 147
115 152
115 153
115 155
115 160
115 163
115 165
115 166
115 169
115 170
115 171
115 172
115 173
115 184
115 208
115 212
115 229
115 232
115 233
115 245
115 249
115 251
115 252
115 254
115 256
115 261
115 263
115 280
115 282
115 283
115 301
115 302
115 318
115 333
115 336
115 337
115 338
115 339
115 340
115 355
115 361
115 363
115 366
115 367
115 370
115 372
115 373
115 387
115 404
115 405
115 411
115 417
115 420
115 421
115 422
115 424
115 427
115 434
115 437
115 438
115 442
115 443
115 453
115 455
115 460
115 473
115 474
115 486
115 492
115 493
115 494
115 513
115 531
115 533
115 546
115 548
115 612
115 615
115 812
115 820
115 932
116 118
116 121
116 123
116 128
116 129
116 133
116 135
116 136
116 151
116 152
116 160
116 165
116 169
116 170
116 171
116 183
116 207
116 221
116 245
116 251
116 261
116 263
116 280
116 329
116 336
116 337
116 338
116 339
116 340
116 361
116 367
116 370
116 405
116 411
116 417
116 420
116 434
116 437
116 438
116 443
116 455
116 460
116 464
116 473
116 513
116 531
116 533
116 548
116 655
116 896
118 121
118 128
118 132
118 183
118 209
118 300
118 301
118 326
118 387
118 409
118 420
118 495
118 549
118 607
118 667
118 748
121 127
121 128
121 129
121 130
121 131
121 132
121 137
121 142
121 143
121 145
121 147
121 151
121 152
121 153
121 154
121 158
121 160
121 161
121 163
121 165
121 166
121 168
121 169
121 172
121 173
121 174
121 179
121 180
121 183
121 184
121 186
121 187
121 189
121 190
121 191
121 199
121 201
121 203
121 208
121 209
121 210
121 211
121 212
121 215
121 221
121 222
121 223
121 226
121 232
121 233
121 234
121 236
121 242
121 245
121 249
121 252
121 253
121 254
121 255
121 256
121 261
121 263
121 269
121 278
121 280
121 281
121 282
121 283
121 285
121 288
121 290
121 296
121 300
121 301
121 303
121 306
121 308
121 316
121 318
121 326
121 329
121 333
121 338
121 340
121 355
121 356
121 357
121 362
121 363
121 365
121 366
121 367
121 368
121 371
121 372
121 373
121 375
121 393
121 395
121 401
121 404
121 405
121 411
121 419
121 420
121 423
121 424
121 426
121 427
121 434
121 438
121 441
121 453
121 458
121 462
121 473
121 474
121 478
121 480
121 489
121 490
121 492
121 493
121 494
121 495
121 513
121 518
121 520
121 526
121 531
121 533
121 543
121 546
121 548
121 550
121 552
121 568
121 601
121 612
121 615
121 654
121 661
121 665
121 747
121 748
121 820
121 828
121 856
121 859
121 963
123 129
123 160
123 165
123 169
123 170
123 172
123 180
123 251
123 275
123 302
123 337
123 338
123 339
123 411
123 420
123 438
123 450
123 455
123 820
126 131
126 137
126 138
126 173
126 174
126 208
126 209
126 211
126 271
126 285
126 286
126 300
126 405
126 408
126 411
126 552
126 564
126 586
126 698
126 812
127 128
127 129
127 130
127 160
127 166
127 169
127 184
127 189
127 318
127 377
127 533
128 129
128 133
128 142
128 143
128 152
128 155
128 157
128 160
128 165
128 166
128 167
128 168
128 169
128 172
128 179
128 180
128 183
128 196
128 197
128 198
128 199
128 200
128 201
128 203
128 204
128 205
128 206
128 207
128 209
128 210
128 211
128 212
128 214
128 215
128 218
128 226
128 249
128 254
128 256
128 278
128 280
128 283
128 290
128 295
128 300
128 303
128 306
128 327
128 329
128 333
128 340
128 346
128 355
128 362
128 363
128 365
128 367
128 371
128 377
128 378
128 388
128 405
128 409
128 419
128 420
128 424
128 430
128 434
128 445
128 450
128 464
128 474
128 483
128 486
128 490
128 494
128 495
128 526
128 533
128 593
128 607
128 667
128 820
128 908
128 917
128 918
128 932
129 130
129 133
129 137
129 142
129 160
129 161
129 162
129 165
129 166
129 168
129 169
129 172
129 173
129 176
129 180
129 183
129 184
129 186
129 187
129 188
129 198
129 203
129 208
129 210
129 211
129 212
129 214
129 221
129 231
129 232
129 249
129 254
129 256
129 275
129 278
129 280
129 282
129 283
129 285
129 286
129 290
129 291
129 292
129 296
129 303
129 308
129 329
129 333
129 340
129 342
129 346
129 351
129 362
129 363
129 365
129 367
129 371
129 377
129 401
129 405
129 413
129 418
129 419
129 422
129 426
129 430
129 434
129 438
129 440
129 450
129 457
129 458
129 460
129 464
129 473
129 482
129 486
129 489
129 490
129 493
129 495
129 515
129 526
129 533
129 543
129 546
129 548
129 562
129 568
129 611
129 615
129 748
129 820
129 932
130 155
130 157
130 160
130 167
130 172
130 180
130 191
130 278
130 280
130 284
130 290
130 342
130 351
130 377
130 388
130 401
130 408
130 426
130 568
130 776
131 132
131 142
131 160
131 163
131 208
131 209
131 211
131 212
131 249
131 252
131 271
131 281
131 282
131 283
131 285
131 305
131 366
131 373
131 411
131 419
131 422
131 455
131 481
131 552
131 586
131 612
131 698
131 738
131 809
131 859
131 932
131 949
131 950
131 963
132 142
132 152
132 158
132 160
132 166
132 194
132 208
132 210
132 211
132 234
132 236
132 242
132 243
132 249
132 252
132 256
132 258
132 271
132 282
132 283
132 285
132 301
132 305
132 366
132 371
132 405
132 411
132 424
132 434
132 481
132 489
132 518
132 552
132 738
132 809
132 859
132 949
133 135
133 136
133 142
133 143
133 155
133 160
133 162
133 165
133 166
133 167
133 168
133 169
133 170
133 171
133 172
133 179
133 181
133 183
133 201
133 206
133 208
133 218
133 232
133 256
133 261
133 280
133 283
133 284
133 291
133 292
133 308
133 309
133 333
133 336
133 337
133 340
133 346
133 361
133 362
133 365
133 367
133 373
133 377
133 400
133 401
133 405
133 417
133 419
133 420
133 426
133 443
133 445
133 450
133 464
133 482
133 483
133 493
133 531
133 545
133 547
133 568
133 581
133 820
133 971
135 136
135 160
135 165
135 169
135 170
135 251
135 336
135 337
135 338
135 339
135 361
135 370
135 409
135 437
135 438
135 443
135 455
136 151
136 160
136 165
136 169
136 170
136 251
136 336
136 337
136 338
136 339
136 361
136 417
136 437
136 438
136 455
136 464
136 820
137 138
137 155
137 158
137 160
137 164
137 166
137 169
137 174
137 183
137 194
137 208
137 209
137 210
137 211
137 249
137 252
137 254
137 255
137 271
137 272
137 281
137 283
137 285
137 286
137 301
137 303
137 305
137 329
137 355
137 365
137 371
137 408
137 412
137 420
137 434
137 481
137 520
137 546
137 552
137 665
137 685
137 809
137 812
137 859
137 880
138 160
138 211
138 252
138 285
138 286
138 301
138 305
138 408
138 409
138 412
138 420
138 481
138 520
138 685
138 698
138 809
138 880
141 142
141 160
141 161
141 166
141 204
141 232
141 249
141 306
141 327
141 362
141 365
141 420
141 421
141 430
141 438
141 473
141 494
141 498
141 506
141 533
141 601
141 661
141 856
142 143
142 145
142 147
142 151
142 152
142 153
142 160
142 163
142 165
142 166
142 172
142 173
142 180
142 183
142 184
142 187
142 191
142 210
142 211
142 212
142 222
142 223
142 226
142 233
142 236
142 249
142 253
142 254
142 256
142 258
142 263
142 269
142 271
142 280
142 282
142 283
142 285
142 291
142 295
142 296
142 300
142 303
142 333
142 338
142 340
142 355
142 356
142 357
142 366
142 367
142 375
142 393
142 404
142 405
142 418
142 424
142 427
142 434
142 441
142 450
142 453
142 458
142 467
142 474
142 480
142 483
142 493
142 494
142 508
142 531
142 560
142 589
142 593
142 615
142 665
142 667
142 747
142 812
142 820
142 828
142 856
142 859
142 896
142 932
142 963
143 160
143 166
143 172
143 196
143 197
143 201
143 229
143 258
143 290
143 325
143 326
143 329
143 340
143 357
143 375
143 405
143 413
143 419
143 420
143 474
143 478
143 480
143 482
143 548
143 820
145 147
145 155
145 160
145 163
145 166
145 170
145 180
145 183
145 187
145 188
145 212
145 233
145 234
145 249
145 252
145 255
145 256
145 269
145 271
145 283
145 290
145 300
145 303
145 326
145 333
145 366
145 393
145 404
145 405
145 422
145 427
145 434
145 462
145 474
145 518
145 533
145 546
145 612
145 615
145 828
145 856
145 950
146 147
146 160
146 166
146 177
146 183
146 187
146 189
146 226
146 316
146 368
146 533
146 549
146 601
146 615
147 152
147 154
147 155
147 160
147 166
147 173
147 189
147 212
147 233
147 249
147 254
147 269
147 301
147 316
147 329
147 342
147 366
147 377
147 422
147 424
147 434
147 460
147 473
147 513
147 533
147 546
147 612
147 615
147 859
147 932
150 155
150 157
150 160
150 166
150 179
150 181
150 182
150 191
150 215
150 250
150 295
150 301
150 321
150 368
150 376
150 377
150 378
150 379
150 381
150 387
150 388
150 389
150 390
150 393
150 397
150 473
150 820
151 165
151 170
151 251
151 261
151 263
151 339
151 361
151 367
151 370
151 409
151 417
151 424
151 427
151 438
151 494
151 655
151 748
152 153
152 154
152 160
152 166
152 183
152 186
152 187
152 211
152 212
152 223
152 249
152 254
152 255
152 256
152 258
152 269
152 271
152 283
152 288
152 333
152 340
152 355
152 363
152 365
152 366
152 393
152 395
152 404
152 420
152 434
152 440
152 458
152 467
152 492
152 494
152 518
152 548
152 612
152 615
153 154
153 155
153 160
153 166
153 173
153 180
153 211
153 212
153 249
153 252
153 254
153 256
153 282
153 283
153 301
153 333
153 366
153 393
153 404
153 422
153 424
153 427
153 434
153 474
153 493
153 494
153 513
153 612
153 615
153 654
153 820
153 856
153 859
153 932
154 155
154 163
154 173
154 183
154 209
154 236
154 249
154 252
154 256
154 269
154 282
154 333
154 363
154 375
154 393
154 404
154 412
154 419
154 422
154 424
154 434
154 474
154 492
154 493
154 495
154 513
154 518
154 533
154 546
154 654
154 820
154 932
154 963
155 157
155 173
155 181
155 183
155 187
155 188
155 189
155 208
155 209
155 211
155 215
155 221
155 223
155 236
155 249
155 269
155 284
155 285
155 301
155 326
155 333
155 337
155 351
155 363
155 367
155 371
155 377
155 393
155 420
155 486
155 495
155 518
155 520
155 533
155 546
155 589
155 593
155 615
155 655
157 174
157 178
157 179
157 180
157 181
157 182
157 191
157 214
157 231
157 250
157 278
157 283
157 284
157 295
157 296
157 301
157 308
157 320
157 321
157 342
157 346
157 351
157 368
157 376
157 377
157 378
157 379
157 380
157 381
157 385
157 387
157 388
157 389
157 390
157 393
157 394
157 395
157 397
157 483
157 489
157 537
157 880
158 159
158 160
158 166
158 174
158 209
158 210
158 233
158 234
158 236
158 237
158 238
158 242
158 243
158 244
158 300
158 405
158 434
158 546
158 564
158 950
158 963
159 160
159 166
159 183
159 209
159 210
159 215
159 233
159 234
159 236
159 237
159 238
159 242
159 243
159 244
159 249
159 252
159 301
159 303
159 434
159 440
159 460
159 820
159 963
160 161
160 162
160 163
160 164
160 165
160 166
160 168
160 169
160 170
160 171
160 173
160 179
160 180
160 181
160 183
160 184
160 187
160 188
160 189
160 190
160 191
160 194
160 195
160 197
160 200
160 201
160 205
160 206
160 207
160 209
160 210
160 212
160 214
160 218
160 221
160 222
160 223
160 226
160 232
160 233
160 234
160 236
160 237
160 242
160 245
160 249
160 250
160 251
160 252
160 255
160 256
160 258
160 261
160 263
160 268
160 269
160 275
160 278
160 280
160 281
160 282
160 283
160 284
160 285
160 286
160 290
160 292
160 296
160 300
160 302
160 303
160 306
160 308
160 310
160 312
160 314
160 316
160 318
160 320
160 321
160 326
160 327
160 329
160 333
160 336
160 337
160 338
160 339
160 340
160 342
160 346
160 351
160 355
160 356
160 361
160 362
160 366
160 367
160 368
160 371
160 375
160 376
160 377
160 379
160 380
160 381
160 385
160 388
160 389
160 393
160 394
160 395
160 397
160 400
160 401
160 404
160 405
160 413
160 417
160 418
160 423
160 424
160 426
160 427
160 430
160 440
160 441
160 445
160 450
160 453
160 458
160 464
160 467
160 474
160 478
160 480
160 481
160 482
160 486
160 490
160 492
160 493
160 494
160 495
160 498
160 506
160 509
160 520
160 526
160 533
160 548
160 549
160 550
160 552
160 562
160 589
160 601
160 611
160 667
160 685
160 747
160 748
160 776
160 809
160 812
160 820
160 828
160 856
160 859
160 880
160 896
160 963
161 249
161 300
161 314
161 351
161 363
161 371
161 405
161 419
161 434
161 441
161 661
161 667
162 163
162 169
162 180
162 181
162 184
162 186
162 190
162 195
162 212
162 236
162 237
162 249
162 252
162 253
162 283
162 288
162 295
162 321
162 333
162 389
162 393
162 404
162 405
162 412
162 417
162 427
162 482
162 492
162 549
162 612
162 654
162 747
162 820
162 859
163 166
163 170
163 212
163 249
163 282
163 333
163 366
163 373
163 377
163 411
163 420
163 422
163 434
163 459
163 473
163 518
163 533
163 546
163 601
163 612
163 615
163 654
163 932
164 170
164 174
164 269
164 272
164 281
164 285
164 379
164 388
164 395
164 412
164 424
164 520
164 533
164 564
164 748
165 166
165 167
165 169
165 170
165 171
165 183
165 186
165 198
165 212
165 223
165 226
165 229
165 245
165 249
165 251
165 254
165 256
165 258
165 261
165 280
165 290
165 314
165 329
165 333
165 336
165 337
165 338
165 339
165 340
165 361
165 362
165 363
165 365
165 366
165 367
165 409
165 417
165 420
165 427
165 434
165 437
165 438
165 443
165 455
165 464
165 482
165 483
165 486
165 490
165 492
165 494
165 531
165 533
165 545
165 547
165 550
165 590
165 820
165 932
166 168
166 172
166 173
166 174
166 177
166 178
166 180
166 181
166 184
166 187
166 191
166 194
166 201
166 209
166 210
166 212
166 214
166 218
166 221
166 222
166 223
166 226
166 233
166 234
166 242
166 243
166 249
166 250
166 252
166 253
166 269
166 282
166 283
166 285
166 290
166 296
166 300
166 301
166 303
166 308
166 314
166 320
166 333
166 340
166 351
166 355
166 366
166 373
166 376
166 377
166 380
166 393
166 404
166 405
166 411
166 420
166 422
166 424
166 426
166 427
166 430
166 434
166 441
166 453
166 459
166 467
166 473
166 474
166 480
166 485
166 492
166 493
166 506
166 513
166 518
166 520
166 601
166 611
166 747
166 820
166 856
166 859
166 880
166 950
167 168
167 172
167 181
167 182
167 196
167 197
167 198
167 199
167 200
167 201
167 203
167 204
167 205
167 206
167 207
167 218
167 231
167 232
167 280
167 284
167 290
167 292
167 296
167 339
167 340
167 342
167 351
167 377
167 420
167 426
167 434
167 450
167 453
167 460
167 483
167 515
167 526
167 593
167 655
167 776
167 820
167 908
167 917
167 918
168 172
168 183
168 198
168 203
168 206
168 231
168 263
168 275
168 278
168 280
168 284
168 285
168 290
168 291
168 292
168 301
168 346
168 413
168 419
168 424
168 426
168 434
168 440
168 450
168 458
168 486
168 493
168 494
168 515
168 526
168 533
168 543
168 568
168 611
168 615
168 820
169 170
169 172
169 183
169 201
169 210
169 211
169 212
169 229
169 249
169 251
169 252
169 254
169 255
169 256
169 261
169 263
169 280
169 283
169 290
169 300
169 301
169 303
169 306
169 308
169 318
169 326
169 329
169 333
169 336
169 337
169 338
169 339
169 340
169 355
169 363
169 365
169 366
169 367
169 371
169 375
169 405
169 409
169 419
169 427
169 434
169 437
169 438
169 450
169 455
169 460
169 464
169 486
169 494
169 495
169 531
169 533
169 548
169 820
169 828
169 896
169 932
170 183
170 188
170 212
170 229
170 249
170 251
170 254
170 255
170 256
170 261
170 280
170 282
170 301
170 303
170 310
170 318
170 336
170 337
170 338
170 339
170 355
170 367
170 371
170 411
170 417
170 419
170 424
170 427
170 434
170 437
170 438
170 442
170 453
170 455
170 460
170 473
170 485
170 490
170 494
170 495
170 513
170 533
170 537
170 543
170 548
170 607
171 172
171 245
171 261
171 263
171 301
171 318
171 333
171 339
171 361
171 370
171 409
171 417
171 423
171 443
171 444
171 455
171 533
171 547
171 590
171 655
171 820
172 180
172 181
172 183
172 197
172 204
172 205
172 207
172 212
172 214
172 231
172 249
172 251
172 256
172 275
172 280
172 285
172 292
172 295
172 333
172 342
172 346
172 351
172 365
172 377
172 401
172 413
172 419
172 420
172 424
172 426
172 434
172 440
172 450
172 457
172 458
172 464
172 482
172 483
172 486
172 493
172 515
172 526
172 533
172 655
172 820
173 184
173 212
173 223
173 233
173 249
173 254
173 256
173 269
173 282
173 300
173 301
173 306
173 325
173 326
173 327
173 333
173 340
173 342
173 366
173 400
173 404
173 405
173 434
173 462
173 494
173 513
173 518
173 531
173 533
173 546
173 549
173 612
173 748
173 859
173 896
173 932
173 950
174 195
174 199
174 208
174 209
174 210
174 211
174 212
174 233
174 237
174 250
174 252
174 254
174 269
174 281
174 282
174 283
174 284
174 285
174 286
174 303
174 305
174 363
174 366
174 371
174 377
174 379
174 395
174 405
174 408
174 411
174 420
174 424
174 473
174 520
174 564
174 665
174 685
174 809
174 812
174 859
174 880
174 932
174 971
176 177
176 178
176 181
176 200
176 204
176 214
176 231
176 232
176 238
176 275
176 292
176 318
176 333
176 381
176 413
176 417
176 423
176 440
176 450
176 478
176 486
176 515
176 593
176 611
177 178
177 200
177 214
177 215
177 218
177 221
177 223
177 229
177 231
177 232
177 275
177 309
177 312
177 321
177 377
177 380
177 381
177 409
177 413
177 440
177 459
177 515
177 533
177 546
177 562
177 601
178 180
178 191
178 200
178 214
178 231
178 232
178 275
178 342
178 351
178 380
178 381
178 413
178 440
178 483
178 498
178 537
179 180
179 181
179 191
179 203
179 214
179 231
179 249
179 278
179 280
179 284
179 295
179 296
179 320
179 321
179 339
179 340
179 342
179 351
179 365
179 376
179 377
179 378
179 381
179 388
179 394
179 397
179 820
179 971
180 191
180 212
180 214
180 231
180 249
180 254
180 256
180 278
180 284
180 301
180 333
180 342
180 346
180 351
180 365
180 366
180 373
180 381
180 393
180 419
180 420
180 421
180 422
180 434
180 493
180 533
180 601
180 615
180 820
180 932
180 950
181 182
181 231
181 250
181 280
181 283
181 291
181 295
181 296
181 320
181 321
181 342
181 346
181 351
181 368
181 376
181 377
181 378
181 379
181 380
181 381
181 385
181 388
181 389
181 390
181 393
181 394
181 395
181 397
181 526
181 950
182 250
182 283
182 295
182 296
182 308
182 320
182 321
182 351
182 368
182 376
182 377
182 378
182 379
182 380
182 381
182 385
182 387
182 388
182 389
182 390
182 393
182 394
182 395
182 397
182 748
183 184
183 187
183 188
183 198
183 201
183 203
183 207
183 209
183 210
183 211
183 212
183 215
183 218
183 223
183 229
183 236
183 245
183 249
183 252
183 256
183 258
183 271
183 272
183 278
183 280
183 281
183 282
183 285
183 286
183 290
183 291
183 292
183 300
183 301
183 302
183 303
183 308
183 309
183 318
183 326
183 329
183 338
183 351
183 355
183 356
183 357
183 362
183 365
183 366
183 367
183 371
183 375
183 400
183 401
183 405
183 411
183 413
183 417
183 418
183 419
183 424
183 426
183 430
183 434
183 450
183 458
183 460
183 464
183 473
183 474
183 478
183 480
183 486
183 493
183 509
183 513
183 518
183 520
183 526
183 531
183 543
183 545
183 562
183 564
183 568
183 611
183 655
183 820
183 845
183 859
184 187
184 188
184 189
184 190
184 249
184 253
184 256
184 282
184 290
184 301
184 311
184 314
184 329
184 355
184 357
184 365
184 366
184 373
184 405
184 409
184 418
184 419
184 420
184 422
184 434
184 473
184 480
184 486
184 508
184 509
184 513
184 546
184 549
184 667
184 747
184 971
186 226
186 254
186 256
186 272
186 283
186 363
186 420
186 450
186 474
186 490
186 492
186 531
186 533
186 654
186 856
186 932
187 189
187 215
187 222
187 249
187 256
187 283
187 300
187 316
187 329
187 363
187 365
187 366
187 405
187 418
187 434
187 459
187 473
187 494
187 518
187 533
187 546
187 549
187 550
187 667
187 671
187 932
188 189
188 215
188 222
188 282
188 311
188 363
188 366
188 418
188 420
188 424
188 459
188 473
188 486
188 495
188 508
188 518
188 533
188 549
188 667
188 671
188 971
189 190
189 215
189 222
189 225
189 253
189 255
189 301
189 311
189 312
189 314
189 377
189 418
189 420
189 434
189 453
189 459
189 460
189 467
189 473
189 508
189 509
189 533
189 537
189 549
189 550
189 667
189 671
189 747
190 282
190 296
190 311
190 329
190 366
190 409
190 418
190 420
190 434
190 459
190 473
190 494
190 509
190 533
190 549
190 564
190 971
191 207
191 212
191 214
191 231
191 256
191 278
191 282
191 283
191 284
191 342
191 346
191 351
191 365
191 379
191 420
191 434
191 494
191 601
194 195
194 208
194 211
194 238
194 252
194 281
194 300
194 305
194 373
194 405
194 408
194 411
194 412
194 533
194 586
194 685
194 698
194 859
195 208
195 211
195 252
195 281
195 286
195 305
195 411
195 412
195 520
195 533
195 552
195 586
195 738
195 809
195 859
196 197
196 198
196 199
196 200
196 201
196 203
196 204
196 205
196 206
196 207
196 218
196 231
196 280
196 282
196 424
196 593
196 776
196 820
196 908
196 917
196 918
196 971
197 198
197 199
197 201
197 205
197 206
197 207
197 215
197 373
197 409
197 457
197 494
197 498
197 593
197 601
197 820
197 908
197 917
197 918
198 199
198 200
198 201
198 203
198 204
198 205
198 206
198 207
198 229
198 258
198 290
198 329
198 387
198 419
198 434
198 485
198 593
198 776
198 820
199 200
199 201
199 203
199 204
199 205
199 206
199 207
199 218
199 258
199 278
199 280
199 288
199 296
199 301
199 338
199 342
199 377
199 419
199 434
199 526
199 593
199 776
199 820
199 908
199 917
199 918
200 201
200 204
200 206
200 207
200 275
200 380
200 413
200 434
200 440
200 498
200 562
200 581
200 593
200 776
200 820
200 908
200 917
200 918
201 203
201 204
201 205
201 206
201 207
201 215
201 218
201 231
201 232
201 249
201 278
201 280
201 283
201 342
201 395
201 420
201 473
201 486
201 533
201 593
201 776
201 820
201 908
201 917
201 918
203 204
203 206
203 231
203 249
203 280
203 284
203 291
203 296
203 342
203 351
203 376
203 377
203 434
203 495
203 548
203 776
203 820
204 205
204 206
204 218
204 232
204 280
204 283
204 377
204 533
204 581
204 593
204 776
204 820
204 908
204 917
204 918
205 206
205 483
205 498
205 581
205 593
205 820
205 908
205 917
206 207
206 214
206 231
206 232
206 280
206 284
206 290
206 291
206 292
206 342
206 346
206 426
206 440
206 515
206 546
206 593
206 776
206 820
206 908
206 917
206 918
207 214
207 377
207 409
207 820
207 908
207 917
207 918
208 210
208 211
208 236
208 249
208 281
208 285
208 305
208 329
208 363
208 371
208 408
208 411
208 434
208 481
208 495
208 520
208 546
208 552
208 564
208 685
208 698
208 738
208 809
208 812
208 820
209 210
209 211
209 233
209 234
209 236
209 237
209 238
209 242
209 243
209 244
209 249
209 252
209 271
209 282
209 283
209 285
209 286
209 300
209 301
209 303
209 365
209 371
209 411
209 420
209 424
209 490
209 494
209 518
209 543
209 546
209 564
209 601
209 812
209 845
209 963
210 211
210 212
210 233
210 234
210 236
210 237
210 238
210 242
210 243
210 244
210 245
210 249
210 252
210 254
210 255
210 256
210 269
210 271
210 282
210 283
210 290
210 295
210 300
210 303
210 305
210 329
210 351
210 355
210 363
210 365
210 371
210 405
210 420
210 424
210 434
210 489
210 494
210 513
210 533
210 546
210 932
210 963
211 212
211 214
211 215
211 236
211 238
211 243
211 249
211 252
211 254
211 255
211 256
211 258
211 269
211 271
211 281
211 283
211 285
211 286
211 290
211 301
211 303
211 304
211 305
211 308
211 329
211 333
211 338
211 340
211 355
211 363
211 365
211 371
211 375
211 389
211 405
211 408
211 411
211 412
211 419
211 420
211 424
211 430
211 434
211 450
211 455
211 460
211 462
211 464
211 473
211 480
211 481
211 489
211 495
211 506
211 513
211 518
211 546
211 552
211 560
211 586
211 611
211 612
211 654
211 661
211 698
211 738
211 809
211 845
211 859
211 932
211 949
212 223
212 226
212 233
212 249
212 252
212 253
212 255
212 256
212 268
212 269
212 282
212 283
212 288
212 296
212 303
212 329
212 333
212 340
212 355
212 357
212 363
212 365
212 367
212 371
212 393
212 404
212 405
212 408
212 411
212 420
212 422
212 424
212 427
212 434
212 450
212 453
212 459
212 462
212 474
212 489
212 490
212 492
212 493
212 494
212 508
212 509
212 518
212 531
212 546
212 549
212 550
212 589
212 612
212 665
212 820
212 856
212 859
212 932
214 215
214 231
214 232
214 278
214 280
214 284
214 301
214 342
214 346
214 351
214 377
214 413
214 419
214 434
214 450
214 460
214 483
214 495
214 593
215 218
215 221
215 222
215 223
215 225
215 249
215 255
215 268
215 283
215 295
215 296
215 301
215 306
215 309
215 311
215 314
215 316
215 340
215 363
215 366
215 377
215 400
215 408
215 411
215 434
215 440
215 459
215 460
215 494
215 495
215 549
215 560
215 589
215 747
215 812
215 820
218 221
218 222
218 223
218 225
218 226
218 249
218 268
218 282
218 288
218 300
218 308
218 309
218 310
218 311
218 312
218 314
218 316
218 340
218 366
218 420
218 459
218 482
218 495
218 513
218 549
218 560
221 222
221 223
221 225
221 226
221 249
221 256
221 268
221 280
221 282
221 283
221 309
221 310
221 312
221 314
221 316
221 405
221 419
221 434
221 459
221 480
221 485
221 493
221 526
221 537
221 546
221 549
221 560
222 223
222 225
222 226
222 249
222 253
222 255
222 256
222 268
222 282
222 301
222 309
222 310
222 311
222 312
222 314
222 316
222 365
222 400
222 420
222 424
222 459
222 467
222 494
222 495
222 513
222 537
222 543
222 560
222 607
222 748
223 225
223 226
223 256
223 268
223 282
223 309
223 311
223 314
223 316
223 365
223 366
223 459
223 480
223 495
223 518
223 560
223 612
223 655
225 226
225 282
225 283
225 301
225 309
225 311
225 312
225 314
225 409
225 459
225 460
225 494
226 232
226 254
226 256
226 275
226 282
226 283
226 300
226 301
226 309
226 314
226 340
226 365
226 366
226 370
226 371
226 390
226 405
226 419
226 434
226 440
226 443
226 459
226 483
226 494
226 513
226 518
226 533
226 546
229 338
229 366
229 387
229 434
229 489
229 494
229 513
229 560
231 232
231 249
231 278
231 280
231 284
231 290
231 292
231 316
231 342
231 351
231 377
231 385
231 426
231 434
231 440
231 457
231 526
231 537
231 655
231 820
232 263
232 275
232 280
232 284
232 291
232 292
232 312
232 320
232 321
232 368
232 380
232 397
232 413
232 426
232 440
232 450
232 457
232 473
232 483
232 486
232 493
232 498
232 515
232 526
232 537
232 562
232 611
232 820
232 918
232 971
233 234
233 236
233 237
233 238
233 242
233 243
233 244
233 252
233 254
233 282
233 288
233 333
233 366
233 404
233 424
233 434
233 441
233 460
233 474
233 494
233 546
233 586
233 601
233 612
233 654
233 828
233 932
234 236
234 237
234 238
234 242
234 243
234 244
234 252
234 256
234 269
234 282
234 283
234 366
234 404
234 474
234 494
234 533
234 654
234 828
234 963
236 237
236 238
236 242
236 243
236 244
236 249
236 252
236 269
236 303
236 363
236 371
236 434
236 533
236 932
236 963
237 238
237 242
237 243
237 244
237 252
237 253
237 424
237 932
237 963
238 242
238 243
238 244
238 252
238 302
238 412
238 440
238 457
238 498
238 506
238 601
238 963
242 243
242 303
242 533
242 564
242 963
243 244
243 249
243 252
243 271
243 305
243 373
243 375
243 411
243 412
243 434
243 537
243 607
243 615
243 820
243 859
243 950
243 963
244 252
244 301
244 303
244 409
244 420
244 422
244 460
244 615
244 963
245 263
245 301
245 318
245 326
245 329
245 333
245 337
245 338
245 339
245 361
245 365
245 367
245 370
245 405
245 417
245 423
245 424
245 426
245 434
245 442
245 443
245 444
245 455
245 485
245 486
245 546
245 547
249 252
249 253
249 255
249 256
249 258
249 278
249 280
249 282
249 283
249 286
249 296
249 301
249 303
249 310
249 327
249 329
249 333
249 340
249 351
249 355
249 356
249 357
249 362
249 363
249 365
249 366
249 367
249 371
249 377
249 388
249 393
249 401
249 404
249 405
249 419
249 420
249 421
249 424
249 427
249 430
249 434
249 438
249 440
249 441
249 459
249 460
249 462
249 464
249 473
249 474
249 489
249 490
249 493
249 495
249 506
249 513
249 518
249 531
249 533
249 543
249 546
249 548
249 550
249 589
249 607
249 615
249 654
249 661
249 671
249 747
249 820
249 856
249 859
249 932
249 950
250 295
250 296
250 320
250 321
250 351
250 368
250 376
250 377
250 379
250 387
250 390
250 393
250 394
250 395
250 495
250 526
251 336
251 338
251 339
251 340
251 361
251 370
251 417
251 437
251 438
251 443
251 455
251 971
252 254
252 269
252 271
252 272
252 281
252 282
252 283
252 285
252 286
252 288
252 302
252 303
252 304
252 305
252 333
252 338
252 389
252 404
252 408
252 411
252 412
252 419
252 427
252 434
252 480
252 481
252 494
252 518
252 520
252 533
252 546
252 552
252 601
252 611
252 615
252 654
252 661
252 685
252 738
252 809
252 812
252 845
252 859
252 880
252 932
252 949
253 258
253 282
253 283
253 316
253 333
253 366
253 373
253 405
253 418
253 419
253 434
253 459
253 509
253 607
253 615
253 671
253 932
254 255
254 256
254 269
254 282
254 283
254 285
254 290
254 296
254 303
254 329
254 340
254 355
254 366
254 367
254 371
254 393
254 404
254 420
254 427
254 441
254 445
254 453
254 458
254 462
254 474
254 490
254 492
254 493
254 495
254 518
254 531
254 665
254 820
254 859
254 932
255 256
255 282
255 283
255 284
255 295
255 300
255 303
255 312
255 314
255 316
255 329
255 355
255 363
255 365
255 366
255 371
255 405
255 419
255 421
255 424
255 434
255 453
255 483
255 545
255 546
255 607
255 932
256 258
256 263
256 269
256 271
256 278
256 280
256 282
256 283
256 290
256 291
256 296
256 303
256 304
256 306
256 308
256 312
256 314
256 318
256 333
256 338
256 340
256 351
256 355
256 356
256 357
256 362
256 363
256 365
256 366
256 367
256 371
256 401
256 405
256 412
256 419
256 420
256 424
256 434
256 445
256 450
256 460
256 462
256 473
256 474
256 489
256 490
256 492
256 493
256 495
256 518
256 531
256 546
256 548
256 552
256 568
256 589
256 607
256 748
256 820
258 282
258 329
258 356
258 357
258 365
258 375
258 417
258 421
258 424
258 434
258 474
258 478
258 490
258 564
258 932
261 333
261 339
261 361
261 367
261 411
261 427
261 437
261 438
261 443
261 455
261 486
261 494
261 655
263 280
263 283
263 290
263 300
263 301
263 303
263 318
263 333
263 338
263 361
263 367
263 405
263 411
263 417
263 419
263 423
263 424
263 426
263 438
263 442
263 443
263 444
263 455
263 485
263 486
263 531
263 547
263 564
268 282
268 295
268 300
268 301
268 309
268 311
268 316
268 340
268 390
268 405
268 419
268 421
268 459
268 494
268 513
268 537
268 549
269 272
269 282
269 288
269 300
269 301
269 303
269 333
269 365
269 371
269 404
269 420
269 422
269 424
269 434
269 473
269 474
269 513
269 533
269 546
269 615
269 820
269 859
269 932
271 272
271 281
271 282
271 283
271 285
271 301
271 303
271 304
271 305
271 333
271 366
271 400
271 408
271 411
271 412
271 455
271 481
271 513
271 518
271 552
271 589
271 698
271 738
271 809
271 859
271 949
272 290
272 309
272 310
272 409
272 422
272 462
272 513
272 546
272 612
272 665
272 812
275 368
275 413
275 426
275 434
275 440
275 450
275 458
275 493
275 515
275 526
275 562
278 280
278 284
278 292
278 301
278 342
278 351
278 363
278 365
278 377
278 405
278 409
278 420
278 486
278 493
278 495
278 548
278 611
278 908
280 282
280 283
280 284
280 290
280 291
280 292
280 296
280 303
280 333
280 336
280 340
280 342
280 351
280 362
280 363
280 367
280 373
280 377
280 388
280 405
280 409
280 419
280 420
280 424
280 426
280 430
280 434
280 440
280 450
280 458
280 464
280 473
280 483
280 486
280 493
280 494
280 515
280 526
280 533
280 543
280 655
280 820
281 285
281 286
281 301
281 303
281 305
281 333
281 408
281 411
281 412
281 424
281 481
281 494
281 520
281 552
281 564
281 615
281 685
281 698
281 738
281 845
281 859
281 880
281 932
281 949
282 283
282 288
282 290
282 300
282 311
282 318
282 333
282 340
282 355
282 356
282 357
282 366
282 371
282 372
282 373
282 375
282 393
282 401
282 404
282 405
282 411
282 420
282 424
282 427
282 434
282 441
282 464
282 474
282 478
282 480
282 493
282 494
282 509
282 518
282 531
282 533
282 546
282 560
282 586
282 589
282 612
282 665
282 747
282 812
282 820
282 856
282 880
282 932
283 288
283 290
283 295
283 296
283 300
283 303
283 308
283 314
283 318
283 320
283 321
283 329
283 333
283 351
283 355
283 356
283 362
283 363
283 365
283 366
283 367
283 368
283 371
283 372
283 373
283 376
283 377
283 378
283 379
283 380
283 387
283 388
283 389
283 390
283 393
283 394
283 395
283 405
283 411
283 420
283 424
283 426
283 434
283 453
283 492
283 493
283 494
283 495
283 518
283 548
283 560
283 589
283 601
283 748
283 820
283 932
284 292
284 296
284 301
284 342
284 351
284 377
284 971
285 286
285 301
285 302
285 303
285 304
285 305
285 366
285 371
285 379
285 401
285 408
285 411
285 412
285 420
285 426
285 457
285 458
285 481
285 486
285 520
285 533
285 552
285 562
285 586
285 685
285 698
285 738
285 809
285 812
285 949
286 303
286 305
286 329
286 408
286 411
286 412
286 481
286 486
286 520
286 685
286 738
286 859
286 880
288 295
288 296
288 333
288 371
288 405
288 434
288 506
288 549
288 550
288 654
290 291
290 295
290 301
290 329
290 340
290 356
290 357
290 366
290 405
290 419
290 424
290 426
290 434
290 437
290 493
290 494
290 495
290 515
290 526
290 531
290 533
290 546
290 568
291 346
291 420
291 450
291 458
291 464
291 493
291 543
292 295
292 377
292 389
292 409
292 426
292 450
292 486
292 493
292 515
292 543
292 611
292 950
295 296
295 308
295 311
295 314
295 320
295 321
295 368
295 376
295 377
295 378
295 379
295 380
295 381
295 385
295 387
295 388
295 389
295 390
295 393
295 394
295 395
295 397
295 424
295 434
295 450
295 459
295 486
295 490
295 560
295 932
296 320
296 321
296 342
296 351
296 363
296 376
296 377
296 378
296 379
296 380
296 385
296 387
296 388
296 389
296 390
296 393
296 395
296 397
296 405
296 419
296 420
296 434
296 473
296 494
296 495
296 526
296 549
296 607
296 932
300 303
300 312
300 314
300 329
300 355
300 367
300 371
300 405
300 419
300 434
300 444
300 460
300 489
300 495
300 531
300 748
300 828
300 896
301 303
301 311
301 312
301 314
301 321
301 327
301 337
301 340
301 356
301 357
301 362
301 368
301 375
301 393
301 404
301 420
301 423
301 444
301 445
301 453
301 473
301 474
301 482
301 581
301 655
301 747
301 809
301 820
301 856
301 963
302 303
302 304
302 333
302 419
302 438
302 455
302 533
302 809
303 304
303 329
303 340
303 351
303 355
303 356
303 362
303 363
303 365
303 367
303 371
303 405
303 411
303 412
303 423
303 424
303 434
303 486
303 513
303 520
303 533
303 564
303 665
303 738
303 845
303 859
303 896
303 932
303 950
304 405
304 411
304 420
304 424
304 455
304 564
304 809
304 971
305 366
305 408
305 409
305 411
305 412
305 420
305 481
305 483
305 489
305 494
305 520
305 552
305 685
305 698
305 738
305 809
305 845
305 880
305 949
306 325
306 326
306 327
306 329
306 366
306 373
306 400
306 409
306 426
306 434
306 478
306 509
306 533
306 549
306 550
306 612
308 320
308 376
308 379
308 390
308 393
308 405
308 411
308 424
308 430
308 434
308 438
308 462
308 494
308 581
308 880
309 310
309 311
309 312
309 314
309 316
309 400
309 495
309 549
309 612
309 615
310 314
310 340
310 365
310 366
310 445
310 494
310 533
310 581
310 932
311 312
311 366
311 373
311 420
311 424
311 459
311 494
311 612
312 314
312 366
312 377
312 420
312 494
314 340
314 363
314 365
314 405
314 418
314 420
314 434
314 495
316 377
316 379
316 409
316 420
316 424
316 459
316 495
316 537
316 549
316 560
318 326
318 333
318 338
318 361
318 367
318 370
318 375
318 409
318 411
318 417
318 420
318 423
318 424
318 426
318 442
318 443
318 444
318 455
318 482
318 485
318 486
318 494
318 547
318 615
320 321
320 333
320 351
320 368
320 376
320 377
320 379
320 380
320 381
320 389
320 390
320 393
320 394
320 397
320 434
320 440
320 483
320 533
320 593
321 351
321 368
321 376
321 377
321 378
321 379
321 380
321 381
321 385
321 387
321 388
321 389
321 390
321 393
321 394
321 395
321 397
321 440
321 483
321 533
321 546
321 560
321 971
325 326
325 327
325 340
325 400
325 409
325 420
325 478
325 508
325 509
325 549
325 971
326 327
326 389
326 409
326 420
326 424
326 473
326 533
326 543
326 549
326 932
327 400
327 473
327 486
327 820
329 333
329 340
329 351
329 355
329 356
329 357
329 363
329 365
329 367
329 371
329 375
329 405
329 419
329 424
329 434
329 450
329 459
329 473
329 474
329 478
329 480
329 486
329 495
329 560
329 568
329 671
329 896
333 340
333 355
333 361
333 366
333 367
333 370
333 393
333 404
333 405
333 411
333 417
333 419
333 421
333 422
333 423
333 427
333 434
333 438
333 441
333 442
333 443
333 444
333 455
333 460
333 473
333 474
333 485
333 486
333 492
333 493
333 518
333 531
333 533
333 546
333 547
333 601
333 615
333 654
333 820
333 932
333 950
336 337
336 338
336 339
336 400
336 409
336 419
336 437
336 438
336 485
336 560
336 820
336 971
337 338
337 339
337 367
337 419
337 420
337 424
337 437
337 438
337 464
337 548
338 339
338 365
338 367
338 409
338 411
338 420
338 424
338 434
338 437
338 438
338 455
338 464
338 485
338 564
338 932
339 340
339 361
339 370
339 417
339 427
339 437
339 438
339 443
339 455
339 464
339 482
339 547
340 342
340 367
340 371
340 375
340 405
340 419
340 420
340 424
340 434
340 438
340 445
340 450
340 459
340 464
340 473
340 474
340 482
340 483
340 494
340 513
340 531
340 546
340 547
340 548
340 564
340 593
340 612
340 654
340 932
342 346
342 351
342 376
342 377
342 381
342 393
342 450
342 483
342 493
342 495
342 533
342 593
342 776
342 820
346 351
346 409
346 820
351 363
351 365
351 371
351 377
351 419
351 420
351 483
351 495
351 518
355 356
355 365
355 371
355 405
355 420
355 424
355 473
355 513
355 518
355 546
355 654
355 856
355 896
355 932
356 357
356 362
356 366
356 375
356 405
356 419
356 424
356 434
356 474
356 478
356 480
356 486
356 490
356 509
356 549
356 564
356 612
356 671
356 828
356 896
357 375
357 404
357 409
357 424
357 474
357 478
357 480
357 486
357 568
357 589
357 615
357 671
361 367
361 370
361 417
361 423
361 434
361 437
361 438
361 443
361 444
361 455
361 533
361 547
361 560
361 971
362 365
362 401
362 405
362 420
362 421
362 430
362 434
362 441
362 459
362 473
362 480
362 483
362 486
362 498
362 506
362 518
362 533
362 546
362 549
362 560
362 661
362 820
362 856
363 365
363 367
363 371
363 420
363 422
363 434
363 495
363 508
363 518
363 531
363 560
363 661
365 371
365 377
365 401
365 405
365 419
365 421
365 430
365 434
365 438
365 440
365 486
365 489
365 490
365 495
365 506
365 513
365 531
365 548
365 564
365 589
365 607
365 820
366 367
366 368
366 372
366 387
366 404
366 424
366 440
366 441
366 443
366 445
366 474
366 494
366 506
366 518
366 531
366 537
366 747
366 812
366 820
366 856
366 859
366 950
367 375
367 405
367 417
367 419
367 420
367 424
367 427
367 434
367 438
367 473
367 486
367 495
367 531
367 546
367 655
367 748
367 932
368 375
368 376
368 377
368 379
368 387
368 390
368 393
368 394
368 395
368 397
368 434
368 440
368 537
368 896
370 417
370 423
370 427
370 442
370 443
370 455
370 547
371 404
371 405
371 409
371 419
371 424
371 434
371 473
371 490
371 494
371 495
371 518
371 533
371 548
371 549
371 828
371 932
372 373
372 404
372 494
372 513
373 404
373 411
373 420
373 481
373 508
373 515
373 552
373 812
375 405
375 411
375 424
375 455
375 474
375 478
375 480
375 494
375 671
375 896
376 377
376 378
376 379
376 380
376 385
376 387
376 388
376 389
376 390
376 393
376 394
376 395
376 397
376 654
377 378
377 379
377 380
377 381
377 385
377 387
377 388
377 389
377 390
377 393
377 394
377 395
377 397
377 450
377 458
377 464
377 483
377 486
377 490
377 494
377 495
377 526
377 546
377 548
377 562
377 593
377 748
377 776
377 918
378 379
378 385
378 387
378 388
378 390
378 393
378 397
379 380
379 381
379 385
379 387
379 388
379 389
379 390
379 393
379 394
379 395
379 397
380 381
380 385
380 387
380 390
380 393
380 397
380 440
380 537
380 562
381 387
381 390
381 393
381 394
381 397
381 515
381 548
385 387
385 389
385 390
385 393
385 394
385 395
387 388
387 389
387 390
387 393
387 394
387 395
387 485
387 667
387 950
388 390
388 393
388 394
389 390
389 393
389 394
389 395
389 397
389 486
389 537
389 611
390 393
390 394
390 395
390 397
390 409
390 438
390 459
390 526
393 394
393 395
393 397
393 421
393 422
393 424
393 434
393 473
393 533
393 546
393 607
393 612
393 615
393 932
393 950
394 397
394 486
394 537
395 424
395 494
395 908
397 458
397 537
397 546
400 411
400 509
400 560
400 589
400 971
401 424
401 426
401 430
401 434
401 457
401 493
401 526
401 533
401 543
401 562
401 568
401 971
404 412
404 420
404 421
404 422
404 424
404 434
404 473
404 474
404 494
404 518
404 533
404 546
404 586
404 601
404 612
404 615
404 654
404 896
404 932
404 950
404 963
405 411
405 419
405 424
405 434
405 438
405 480
405 489
405 490
405 493
405 495
405 498
405 518
405 531
405 537
405 543
405 548
405 601
405 748
405 828
405 856
405 896
408 411
408 412
408 420
408 434
408 462
408 473
408 489
408 520
408 533
408 552
408 586
408 685
408 845
408 859
408 880
409 417
409 418
409 420
409 421
409 443
409 450
409 457
409 464
409 474
409 506
409 515
409 581
409 590
409 667
409 776
411 412
411 430
411 434
411 438
411 455
411 460
411 462
411 473
411 481
411 498
411 506
411 537
411 552
411 665
411 671
411 698
411 738
411 809
411 859
411 949
412 434
412 473
412 481
412 520
412 552
412 586
412 615
412 665
412 685
412 698
412 738
412 809
412 812
412 820
412 845
412 859
412 971
413 426
413 440
413 450
413 458
413 493
413 515
413 526
413 562
417 423
417 434
417 437
417 438
417 442
417 443
417 444
417 455
417 485
417 486
417 494
417 547
417 971
418 467
418 473
418 480
418 508
418 509
418 549
418 747
419 434
419 445
419 450
419 460
419 462
419 473
419 474
419 482
419 489
419 490
419 493
419 495
419 526
419 531
419 607
419 611
419 655
419 828
419 932
420 430
420 434
420 450
420 453
420 458
420 464
420 474
420 490
420 494
420 509
420 520
420 526
420 531
420 568
420 581
420 607
420 654
420 661
420 820
420 932
421 430
421 434
421 457
421 459
421 460
421 473
421 481
421 498
421 607
421 820
421 856
422 424
422 427
422 473
422 474
422 493
422 513
422 518
422 533
422 546
422 601
422 615
422 820
422 950
423 426
423 438
423 442
423 443
423 444
423 455
423 482
423 485
423 547
423 971
424 434
424 445
424 462
424 464
424 474
424 478
424 483
424 493
424 495
424 509
424 518
424 526
424 543
424 552
424 589
424 612
424 738
424 747
424 748
424 820
424 880
424 950
426 440
426 450
426 457
426 458
426 486
426 493
426 518
426 526
426 562
426 568
427 434
427 438
427 443
427 460
427 473
427 474
427 546
427 612
427 615
427 655
427 932
427 950
430 441
430 462
430 486
430 498
430 506
430 533
430 543
430 856
430 971
434 440
434 441
434 450
434 458
434 459
434 460
434 467
434 473
434 474
434 478
434 489
434 490
434 493
434 495
434 506
434 509
434 515
434 518
434 531
434 533
434 548
434 550
434 589
434 593
434 607
434 612
434 812
434 820
434 828
434 856
434 859
437 438
437 443
437 455
437 482
437 531
437 547
438 440
438 444
438 450
438 455
438 482
438 494
438 531
438 545
438 562
438 590
438 655
440 450
440 457
440 458
440 460
440 493
440 498
440 515
440 526
440 533
440 562
440 661
441 473
441 498
441 506
441 533
441 546
441 661
442 443
442 444
442 455
442 478
442 485
442 545
443 444
443 455
443 485
443 547
443 590
443 820
444 455
444 464
444 485
444 547
444 971
445 518
445 531
445 581
445 820
445 917
450 458
450 464
450 482
450 493
450 494
450 515
450 526
450 543
450 568
450 581
450 611
450 932
453 459
453 546
453 607
453 615
453 654
453 932
455 464
455 485
455 547
457 493
457 526
457 533
457 562
457 568
457 971
458 486
458 493
458 494
458 515
458 526
458 533
458 543
458 568
458 655
459 464
459 467
459 473
459 490
459 495
459 498
459 513
459 537
459 548
459 549
459 560
459 589
459 615
459 661
460 462
460 467
460 473
460 490
460 493
460 495
460 518
460 533
460 537
460 549
460 607
460 615
460 748
462 506
462 513
462 545
462 546
462 586
464 483
464 493
464 494
464 611
464 820
467 509
467 549
467 971
473 474
473 483
473 489
473 490
473 493
473 495
473 498
473 508
473 509
473 531
473 533
473 537
473 545
473 549
473 550
473 581
473 667
473 747
473 963
474 478
474 493
474 494
474 513
474 546
474 560
474 612
474 615
474 859
474 932
474 950
478 486
478 543
480 494
480 508
480 509
480 549
480 550
480 564
480 601
480 667
480 671
480 971
481 552
481 586
481 685
481 698
481 738
481 809
481 845
481 949
481 950
482 483
482 531
482 593
482 655
482 820
483 493
483 533
483 820
483 917
486 493
486 537
486 611
486 820
489 932
490 513
490 518
490 546
490 607
490 932
492 518
492 612
492 615
492 932
492 950
493 515
493 526
493 533
493 543
493 546
493 562
493 568
493 611
493 615
493 820
493 932
494 506
494 509
494 515
494 543
494 590
494 593
494 601
494 747
494 918
494 932
495 526
495 671
495 748
495 932
498 506
498 526
498 533
498 562
498 593
498 738
498 856
506 661
506 856
506 932
506 971
508 509
508 533
508 546
508 549
508 550
508 667
508 747
509 513
509 518
509 546
509 549
509 667
509 671
509 747
513 518
513 546
513 615
513 655
513 747
515 526
515 533
515 552
515 562
515 593
518 533
518 546
518 552
518 560
518 615
518 661
520 533
520 552
520 685
520 738
520 812
520 845
520 859
520 971
526 537
526 543
526 546
526 568
526 655
531 548
531 581
531 932
533 546
533 562
533 581
533 590
533 607
533 667
533 820
533 856
533 950
537 607
545 590
546 615
546 812
546 820
546 828
546 856
546 859
546 963
548 607
549 550
549 661
549 667
549 671
549 747
550 667
550 747
552 698
552 738
552 809
552 949
560 607
560 856
562 568
562 654
564 589
564 748
581 820
586 738
586 932
589 607
589 671
593 776
593 820
593 908
593 917
593 918
601 812
601 859
612 747
612 828
612 856
612 859
612 963
615 747
615 820
615 828
615 856
615 963
654 820
661 856
665 685
665 812
665 859
667 747
671 747
671 932
685 698
685 738
685 809
685 812
685 845
685 859
685 880
685 949
698 738
698 809
698 949
738 809
747 971
748 932
776 820
776 908
776 917
776 918
809 845
809 859
809 949
809 971
812 845
812 859
812 880
812 932
812 950
812 971
820 856
820 908
820 917
820 918
820 932
820 950
828 896
845 859
856 932
856 950
859 880
859 932
859 963
859 971
880 949
908 917
908 918
917 918
932 963
950 963
